*HEADING
cubit(sers/brittanyerickson/Desktop/test_mesh/BP9_2D_90d_v1.inp): 05/05/2026: 11
version: 2024.8
**
********************************** P A R T S **********************************
*PART, NAME=Part-Default
**
********************************** N O D E S **********************************
*NODE, NSET=ALLNODES
       1,    0.000000e+00,    0.000000e+00,    0.000000e+00
       2,    0.000000e+00,   -4.000000e+01,    0.000000e+00
       3,    0.000000e+00,   -5.000000e+00,    0.000000e+00
       4,    0.000000e+00,   -1.000000e+01,    0.000000e+00
       5,    0.000000e+00,   -1.500000e+01,    0.000000e+00
       6,    0.000000e+00,   -2.000000e+01,    0.000000e+00
       7,    0.000000e+00,   -2.500000e+01,    0.000000e+00
       8,    0.000000e+00,   -3.000000e+01,    0.000000e+00
       9,    0.000000e+00,   -3.500000e+01,    0.000000e+00
      10,   -1.000000e+02,    0.000000e+00,    0.000000e+00
      11,   -5.000000e+00,    0.000000e+00,    0.000000e+00
      12,   -1.044691e+01,    0.000000e+00,    0.000000e+00
      13,   -1.648152e+01,    0.000000e+00,    0.000000e+00
      14,   -2.328195e+01,    0.000000e+00,    0.000000e+00
      15,   -3.107831e+01,    0.000000e+00,    0.000000e+00
      16,   -4.017230e+01,    0.000000e+00,    0.000000e+00
      17,   -5.096471e+01,    0.000000e+00,    0.000000e+00
      18,   -6.399506e+01,    0.000000e+00,    0.000000e+00
      19,   -8.000000e+01,    0.000000e+00,    0.000000e+00
      20,    1.000000e+02,    0.000000e+00,    0.000000e+00
      21,    8.000000e+01,    0.000000e+00,    0.000000e+00
      22,    6.399506e+01,    0.000000e+00,    0.000000e+00
      23,    5.096471e+01,    0.000000e+00,    0.000000e+00
      24,    4.017230e+01,    0.000000e+00,    0.000000e+00
      25,    3.107831e+01,    0.000000e+00,    0.000000e+00
      26,    2.328195e+01,    0.000000e+00,    0.000000e+00
      27,    1.648152e+01,    0.000000e+00,    0.000000e+00
      28,    1.044691e+01,    0.000000e+00,    0.000000e+00
      29,    5.000000e+00,    0.000000e+00,    0.000000e+00
      30,    0.000000e+00,   -1.000000e+02,    0.000000e+00
      31,    0.000000e+00,   -4.500000e+01,    0.000000e+00
      32,    0.000000e+00,   -5.070361e+01,    0.000000e+00
      33,    0.000000e+00,   -5.769635e+01,    0.000000e+00
      34,    0.000000e+00,   -6.691830e+01,    0.000000e+00
      35,    0.000000e+00,   -8.000000e+01,    0.000000e+00
      36,   -1.000000e+02,   -1.000000e+02,    0.000000e+00
      37,   -1.000000e+02,   -2.000000e+01,    0.000000e+00
      38,   -1.000000e+02,   -4.000000e+01,    0.000000e+00
      39,   -1.000000e+02,   -6.000000e+01,    0.000000e+00
      40,   -1.000000e+02,   -8.000000e+01,    0.000000e+00
      41,    1.000000e+02,   -1.000000e+02,    0.000000e+00
      42,    1.000000e+02,   -8.000000e+01,    0.000000e+00
      43,    1.000000e+02,   -6.000000e+01,    0.000000e+00
      44,    1.000000e+02,   -4.000000e+01,    0.000000e+00
      45,    1.000000e+02,   -2.000000e+01,    0.000000e+00
      46,   -8.000000e+01,   -1.000000e+02,    0.000000e+00
      47,   -6.000000e+01,   -1.000000e+02,    0.000000e+00
      48,   -4.000000e+01,   -1.000000e+02,    0.000000e+00
      49,   -2.000000e+01,   -1.000000e+02,    0.000000e+00
      50,    2.000000e+01,   -1.000000e+02,    0.000000e+00
      51,    4.000000e+01,   -1.000000e+02,    0.000000e+00
      52,    6.000000e+01,   -1.000000e+02,    0.000000e+00
      53,    8.000000e+01,   -1.000000e+02,    0.000000e+00
      54,    8.113020e+01,   -1.882846e+01,    0.000000e+00
      55,    6.439707e+01,   -1.719939e+01,    0.000000e+00
      56,    5.059841e+01,   -1.456455e+01,    0.000000e+00
      57,    3.931459e+01,   -1.186432e+01,    0.000000e+00
      58,    3.015780e+01,   -9.648812e+00,    0.000000e+00
      59,    2.188473e+01,   -8.445433e+00,    0.000000e+00
      60,    1.356238e+01,   -7.666494e+00,    0.000000e+00
      61,    9.749089e+00,   -4.091129e+00,    0.000000e+00
      62,    5.221252e+00,   -4.649531e+00,    0.000000e+00
      63,    6.140895e+00,   -9.465546e+00,    0.000000e+00
      64,    6.203368e+00,   -1.502197e+01,    0.000000e+00
      65,    5.931118e+00,   -2.067616e+01,    0.000000e+00
      66,    5.372399e+00,   -2.616493e+01,    0.000000e+00
      67,    4.313280e+00,   -3.107977e+01,    0.000000e+00
      68,    3.048866e+00,   -3.461877e+01,    0.000000e+00
      69,    4.919473e+00,   -3.775673e+01,    0.000000e+00
      70,    7.237108e+00,   -4.242650e+01,    0.000000e+00
      71,    9.954128e+00,   -4.859622e+01,    0.000000e+00
      72,    1.268588e+01,   -5.697311e+01,    0.000000e+00
      73,    1.559641e+01,   -6.797251e+01,    0.000000e+00
      74,    1.792141e+01,   -8.249876e+01,    0.000000e+00
      75,    7.895067e+01,   -7.934968e+01,    0.000000e+00
      76,    7.814924e+01,   -5.841978e+01,    0.000000e+00
      77,    8.014998e+01,   -3.805129e+01,    0.000000e+00
      78,    3.689978e+01,   -8.134522e+01,    0.000000e+00
      79,    5.744153e+01,   -7.914660e+01,    0.000000e+00
      80,    1.218476e+01,   -2.185907e+01,    0.000000e+00
      81,    1.090720e+01,   -2.808165e+01,    0.000000e+00
      82,    8.463295e+00,   -3.367052e+01,    0.000000e+00
      83,    1.319531e+01,   -3.764601e+01,    0.000000e+00
      84,    1.919678e+01,   -4.328428e+01,    0.000000e+00
      85,    2.563888e+01,   -5.202810e+01,    0.000000e+00
      86,    3.242798e+01,   -6.478809e+01,    0.000000e+00
      87,    6.155207e+01,   -3.503979e+01,    0.000000e+00
      88,    4.674360e+01,   -2.896291e+01,    0.000000e+00
      89,    3.569562e+01,   -2.337947e+01,    0.000000e+00
      90,    2.795395e+01,   -1.860920e+01,    0.000000e+00
      91,    2.043251e+01,   -1.645794e+01,    0.000000e+00
      92,    1.314688e+01,   -1.521582e+01,    0.000000e+00
      93,    5.350576e+01,   -5.592616e+01,    0.000000e+00
      94,    1.870080e+01,   -2.354459e+01,    0.000000e+00
      95,    1.731837e+01,   -3.071781e+01,    0.000000e+00
      96,    2.737940e+01,   -3.347588e+01,    0.000000e+00
      97,    3.805953e+01,   -4.254764e+01,    0.000000e+00
      98,    2.467805e+01,   -2.520989e+01,    0.000000e+00
      99,   -1.783356e+01,   -8.261563e+01,    0.000000e+00
     100,   -1.479645e+01,   -6.859817e+01,    0.000000e+00
     101,   -1.151742e+01,   -5.809639e+01,    0.000000e+00
     102,   -8.295317e+00,   -5.047134e+01,    0.000000e+00
     103,   -6.743630e+00,   -4.487694e+01,    0.000000e+00
     104,   -6.530425e+00,   -3.969644e+01,    0.000000e+00
     105,   -6.598949e+00,   -3.442927e+01,    0.000000e+00
     106,   -6.472053e+00,   -2.896074e+01,    0.000000e+00
     107,   -6.349772e+00,   -2.288802e+01,    0.000000e+00
     108,   -3.519950e+00,   -1.947353e+01,    0.000000e+00
     109,   -4.299183e+00,   -1.549364e+01,    0.000000e+00
     110,   -4.852543e+00,   -1.054049e+01,    0.000000e+00
     111,   -5.090161e+00,   -5.275140e+00,    0.000000e+00
     112,   -1.049735e+01,   -5.699550e+00,    0.000000e+00
     113,   -1.650456e+01,   -6.324251e+00,    0.000000e+00
     114,   -2.318510e+01,   -7.355386e+00,    0.000000e+00
     115,   -3.051356e+01,   -8.960219e+00,    0.000000e+00
     116,   -3.952765e+01,   -1.154103e+01,    0.000000e+00
     117,   -5.038513e+01,   -1.424119e+01,    0.000000e+00
     118,   -6.407484e+01,   -1.699583e+01,    0.000000e+00
     119,   -8.085413e+01,   -1.875609e+01,    0.000000e+00
     120,   -7.876491e+01,   -7.937281e+01,    0.000000e+00
     121,   -5.714355e+01,   -7.902466e+01,    0.000000e+00
     122,   -3.652128e+01,   -8.164811e+01,    0.000000e+00
     123,   -7.977350e+01,   -3.798939e+01,    0.000000e+00
     124,   -7.772253e+01,   -5.849267e+01,    0.000000e+00
     125,   -3.101984e+01,   -6.556425e+01,    0.000000e+00
     126,   -2.264562e+01,   -5.374439e+01,    0.000000e+00
     127,   -1.159125e+01,   -4.396005e+01,    0.000000e+00
     128,   -1.297447e+01,   -3.402123e+01,    0.000000e+00
     129,   -1.276670e+01,   -2.850353e+01,    0.000000e+00
     130,   -8.723045e+00,   -1.702954e+01,    0.000000e+00
     131,   -9.960438e+00,   -1.146114e+01,    0.000000e+00
     132,   -1.569211e+01,   -1.258725e+01,    0.000000e+00
     133,   -2.154845e+01,   -1.424417e+01,    0.000000e+00
     134,   -2.803478e+01,   -1.716771e+01,    0.000000e+00
     135,   -3.563850e+01,   -2.174460e+01,    0.000000e+00
     136,   -4.579269e+01,   -2.836888e+01,    0.000000e+00
     137,   -6.081967e+01,   -3.475895e+01,    0.000000e+00
     138,   -5.225283e+01,   -5.591268e+01,    0.000000e+00
     139,   -1.409282e+01,   -1.825257e+01,    0.000000e+00
     140,   -1.938352e+01,   -4.091444e+01,    0.000000e+00
     141,   -2.007762e+01,   -3.351296e+01,    0.000000e+00
     142,   -1.847458e+01,   -2.749349e+01,    0.000000e+00
     143,   -1.258546e+01,   -2.336107e+01,    0.000000e+00
     144,   -2.377861e+01,   -2.366161e+01,    0.000000e+00
     145,   -1.918006e+01,   -1.992791e+01,    0.000000e+00
     146,   -2.856581e+01,   -3.001805e+01,    0.000000e+00
     147,   -3.359253e+01,   -4.198529e+01,    0.000000e+00
     148,   -1.536650e+01,   -4.748291e+01,    0.000000e+00
     149,   -1.266360e+01,   -3.952031e+01,    0.000000e+00
     150,   -1.679733e+01,   -2.361468e+01,    0.000000e+00
**
********************************** E L E M E N T S ****************************
*ELEMENT, TYPE=S4R, ELSET=EB1
       1,      30,      35,      99,      49
       2,      35,      34,     100,      99
       3,      34,      33,     101,     100
       4,      33,      32,     102,     101
       5,      32,      31,     103,     102
       6,      31,       2,     104,     103
       7,       2,       9,     105,     104
       8,       9,       8,     106,     105
       9,       8,       7,     107,     106
      10,       7,       6,     108,     107
      11,       6,       5,     109,     108
      12,       5,       4,     110,     109
      13,       4,       3,     111,     110
      14,       3,       1,      11,     111
      15,      11,      12,     112,     111
      16,      12,      13,     113,     112
      17,      13,      14,     114,     113
      18,      14,      15,     115,     114
      19,      15,      16,     116,     115
      20,      16,      17,     117,     116
      21,      17,      18,     118,     117
      22,      18,      19,     119,     118
      23,      19,      10,      37,     119
      24,      36,      46,     120,      40
      25,      46,      47,     121,     120
      26,      47,      48,     122,     121
      27,      48,      49,      99,     122
      28,      37,      38,     123,     119
      29,      38,      39,     124,     123
      30,      39,      40,     120,     124
      31,      99,     100,     125,     122
      32,     100,     101,     126,     125
      33,     101,     102,     148,     126
      34,     104,     105,     128,     149
      35,     105,     106,     129,     128
      36,     108,     109,     130,     107
      37,     109,     110,     131,     130
      38,     110,     111,     112,     131
      39,     112,     113,     132,     131
      40,     113,     114,     133,     132
      41,     114,     115,     134,     133
      42,     115,     116,     135,     134
      43,     116,     117,     136,     135
      44,     117,     118,     137,     136
      45,     118,     119,     123,     137
      46,     123,     124,     138,     137
      47,     124,     120,     121,     138
      48,     121,     122,     125,     138
      49,     131,     132,     139,     130
      50,     125,     126,     147,     138
      51,     126,     148,     140,     147
      52,     149,     128,     141,     140
      53,     128,     129,     142,     141
      54,     106,     107,     143,     129
      55,     107,     130,     139,     143
      56,     139,     132,     133,     145
      57,     133,     134,     144,     145
      58,     134,     135,     146,     144
      59,     135,     136,     147,     146
      60,     136,     137,     138,     147
      61,     146,     147,     140,     141
      62,     141,     142,     144,     146
      63,     140,     148,     127,     149
      64,     148,     102,     103,     127
      65,     127,     103,     104,     149
      66,     142,     129,     143,     150
      67,     150,     143,     139,     145
      68,     144,     142,     150,     145
*ELEMENT, TYPE=S4R, ELSET=EB2
      69,      20,      21,      54,      45
      70,      21,      22,      55,      54
      71,      22,      23,      56,      55
      72,      23,      24,      57,      56
      73,      24,      25,      58,      57
      74,      25,      26,      59,      58
      75,      26,      27,      60,      59
      76,      27,      28,      61,      60
      77,      28,      29,      62,      61
      78,      29,       1,       3,      62
      79,       3,       4,      63,      62
      80,       4,       5,      64,      63
      81,       5,       6,      65,      64
      82,       6,       7,      66,      65
      83,       7,       8,      67,      66
      84,       8,       9,      68,      67
      85,       9,       2,      69,      68
      86,       2,      31,      70,      69
      87,      31,      32,      71,      70
      88,      32,      33,      72,      71
      89,      33,      34,      73,      72
      90,      34,      35,      74,      73
      91,      35,      30,      50,      74
      92,      41,      42,      75,      53
      93,      42,      43,      76,      75
      94,      43,      44,      77,      76
      95,      44,      45,      54,      77
      96,      50,      51,      78,      74
      97,      51,      52,      79,      78
      98,      52,      53,      75,      79
      99,      62,      63,      60,      61
     100,      63,      64,      92,      60
     101,      64,      65,      80,      92
     102,      65,      66,      81,      80
     103,      66,      67,      82,      81
     104,      68,      69,      82,      67
     105,      69,      70,      83,      82
     106,      70,      71,      84,      83
     107,      71,      72,      85,      84
     108,      72,      73,      86,      85
     109,      73,      74,      78,      86
     110,      54,      55,      87,      77
     111,      55,      56,      88,      87
     112,      56,      57,      89,      88
     113,      57,      58,      90,      89
     114,      58,      59,      91,      90
     115,      59,      60,      92,      91
     116,      75,      76,      93,      79
     117,      76,      77,      87,      93
     118,      78,      79,      93,      86
     119,      92,      80,      94,      91
     120,      80,      81,      95,      94
     121,      81,      82,      83,      95
     122,      83,      84,      96,      95
     123,      84,      85,      97,      96
     124,      85,      86,      93,      97
     125,      87,      88,      97,      93
     126,      88,      89,      96,      97
     127,      89,      90,      98,      96
     128,      90,      91,      94,      98
     129,      94,      95,      96,      98
**
********************************** S I D E S E T S **********************************
*ELSET, ELSET=SS1_E1
      28,      29,      30,      92,      93,      94,      95
*ELSET, ELSET=SS1_E2
      23
*ELSET, ELSET=SS1_E4
      24,      69
*SURFACE, NAME=SS1
SS1_E1, E1
SS1_E2, E2
SS1_E4, E4
*ELSET, ELSET=SS2_E1
      15,      16,      17,      18,      19,      20,      21,      22,      23,      24,
      25,      26,      27,      69,      70,      71,      72,      73,      74,      75,
      76,      77,      78,      96,      97,      98
*ELSET, ELSET=SS2_E2
      14,      91
*ELSET, ELSET=SS2_E4
       1,      92
*SURFACE, NAME=SS2
SS2_E1, E1
SS2_E2, E2
SS2_E4, E4
*ELSET, ELSET=SS7_E1
       7,       8,       9,      10,      11,      12,      13,      14,      79,      80,
      81,      82,      83,      84,      85
*ELSET, ELSET=SS7_E2
      78
*SURFACE, NAME=SS7
SS7_E1, E1
SS7_E2, E2
*ELSET, ELSET=SS8_E1
       1,       2,       3,       4,       5,       6,      86,      87,      88,      89,
      90,      91
*SURFACE, NAME=SS8
SS8_E1, E1
**
********************************** P R O P E R T I E S ************************
*SHELL SECTION, ELSET=EB1, SECTION INTEGRATION=SIMPSON, MATERIAL=Default-Steel
1.000000e+00
*SHELL SECTION, ELSET=EB2, SECTION INTEGRATION=SIMPSON, MATERIAL=Default-Steel
1.000000e+00
**
*END PART
**
**
**
********************************** E N D   P A R T S **********************************
**
**
********************************** A S S E M B L Y ************************************
**
*ASSEMBLY, NAME=ASSEMBLY1
**
*INSTANCE, NAME=Part-Default_1, PART=Part-Default
*END INSTANCE
**
*END ASSEMBLY
**
**
**
*MATERIAL, NAME = Default-Steel
*ELASTIC, TYPE=ISOTROPIC
2.068000e+05, 2.900000e-01
*DENSITY
7.000000e-06
*CONDUCTIVITY,TYPE=ISO
4.500000e-02
*SPECIFIC HEAT
5.000000e+02
**
**
************************************** H I S T O R Y *************************************
**
*PREPRINT
**
**************************************** S T E P 1 ***************************************
*STEP,INC=100,NAME=Default Set
**
*STATIC
1, 1, 1e-05, 1
**
**
**
**
*END STEP
