*HEADING
cubit(yerickson/Desktop/test_mesh/BP3_2D_60d_v2_4blocks_var.inp): 05/07/2026: 10
version: 2024.8
**
********************************** P A R T S **********************************
*PART, NAME=Part-Default
**
********************************** N O D E S **********************************
*NODE, NSET=ALLNODES
       1,    0.000000e+00,    0.000000e+00,    0.000000e+00
       2,   -4.000000e+01,    0.000000e+00,    0.000000e+00
       3,   -5.000000e+00,    0.000000e+00,    0.000000e+00
       4,   -1.000000e+01,    0.000000e+00,    0.000000e+00
       5,   -1.500000e+01,    0.000000e+00,    0.000000e+00
       6,   -2.000000e+01,    0.000000e+00,    0.000000e+00
       7,   -2.500000e+01,    0.000000e+00,    0.000000e+00
       8,   -3.000000e+01,    0.000000e+00,    0.000000e+00
       9,   -3.500000e+01,    0.000000e+00,    0.000000e+00
      10,    4.000000e+01,    0.000000e+00,    0.000000e+00
      11,    3.500000e+01,    0.000000e+00,    0.000000e+00
      12,    3.000000e+01,    0.000000e+00,    0.000000e+00
      13,    2.500000e+01,    0.000000e+00,    0.000000e+00
      14,    2.000000e+01,    0.000000e+00,    0.000000e+00
      15,    1.500000e+01,    0.000000e+00,    0.000000e+00
      16,    1.000000e+01,    0.000000e+00,    0.000000e+00
      17,    5.000000e+00,    0.000000e+00,    0.000000e+00
      18,    4.000000e+01,   -6.928203e+01,    0.000000e+00
      19,    2.000000e+01,   -3.464102e+01,    0.000000e+00
      20,    3.750000e+01,   -6.495191e+01,    0.000000e+00
      21,    3.500000e+01,   -6.062178e+01,    0.000000e+00
      22,    3.250000e+01,   -5.629165e+01,    0.000000e+00
      23,    3.000000e+01,   -5.196152e+01,    0.000000e+00
      24,    2.750000e+01,   -4.763140e+01,    0.000000e+00
      25,    2.500000e+01,   -4.330127e+01,    0.000000e+00
      26,    2.250000e+01,   -3.897114e+01,    0.000000e+00
      27,    2.000000e+00,   -3.464102e+00,    0.000000e+00
      28,    4.000000e+00,   -6.928203e+00,    0.000000e+00
      29,    6.000000e+00,   -1.039230e+01,    0.000000e+00
      30,    8.000000e+00,   -1.385641e+01,    0.000000e+00
      31,    1.000000e+01,   -1.732051e+01,    0.000000e+00
      32,    1.200000e+01,   -2.078461e+01,    0.000000e+00
      33,    1.400000e+01,   -2.424871e+01,    0.000000e+00
      34,    1.600000e+01,   -2.771281e+01,    0.000000e+00
      35,    1.800000e+01,   -3.117691e+01,    0.000000e+00
      36,    8.000000e+01,   -6.928203e+01,    0.000000e+00
      37,    7.000000e+01,   -5.196152e+01,    0.000000e+00
      38,    6.000000e+01,   -3.464102e+01,    0.000000e+00
      39,    5.000000e+01,   -1.732051e+01,    0.000000e+00
      40,    0.000000e+00,   -6.928203e+01,    0.000000e+00
      41,   -3.000000e+01,   -1.732051e+01,    0.000000e+00
      42,   -2.000000e+01,   -3.464102e+01,    0.000000e+00
      43,   -1.000000e+01,   -5.196152e+01,    0.000000e+00
      44,    6.000000e+01,   -6.928203e+01,    0.000000e+00
      45,    2.000000e+01,   -6.928203e+01,    0.000000e+00
      46,    5.734413e+00,   -3.195976e+00,    0.000000e+00
      47,    1.437273e+01,   -1.337521e+01,    0.000000e+00
      48,    1.671114e+01,   -1.728724e+01,    0.000000e+00
      49,    1.892951e+01,   -2.127685e+01,    0.000000e+00
      50,    2.079104e+01,   -2.563330e+01,    0.000000e+00
      51,    2.199783e+01,   -2.973124e+01,    0.000000e+00
      52,    2.247842e+01,   -3.312324e+01,    0.000000e+00
      53,    2.544047e+01,   -3.512574e+01,    0.000000e+00
      54,    2.896822e+01,   -3.880912e+01,    0.000000e+00
      55,    3.213368e+01,   -4.353575e+01,    0.000000e+00
      56,    3.450299e+01,   -4.873660e+01,    0.000000e+00
      57,    3.584564e+01,   -5.298251e+01,    0.000000e+00
      58,    4.037737e+01,   -5.440277e+01,    0.000000e+00
      59,    5.092578e+01,   -5.675289e+01,    0.000000e+00
      60,    3.052224e+01,   -1.220642e+01,    0.000000e+00
      61,    2.601238e+01,   -8.365205e+00,    0.000000e+00
      62,    2.171939e+01,   -6.120415e+00,    0.000000e+00
      63,    1.761711e+01,   -4.610667e+00,    0.000000e+00
      64,    1.340199e+01,   -4.374943e+00,    0.000000e+00
      65,    9.332657e+00,   -3.765133e+00,    0.000000e+00
      66,    4.961407e+01,   -4.250820e+01,    0.000000e+00
      67,    4.371948e+01,   -3.121959e+01,    0.000000e+00
      68,    3.525726e+01,   -2.224131e+01,    0.000000e+00
      69,    2.147043e+01,   -1.360736e+01,    0.000000e+00
      70,    1.608179e+01,   -8.073492e+00,    0.000000e+00
      71,    1.213074e+01,   -9.236481e+00,    0.000000e+00
      72,    1.851524e+01,   -1.043000e+01,    0.000000e+00
      73,    2.683402e+01,   -3.022708e+01,    0.000000e+00
      74,    3.253284e+01,   -3.282228e+01,    0.000000e+00
      75,    4.056498e+01,   -4.637626e+01,    0.000000e+00
      76,    3.749422e+01,   -3.893027e+01,    0.000000e+00
      77,    2.659222e+01,   -2.399045e+01,    0.000000e+00
      78,    2.442489e+01,   -1.814556e+01,    0.000000e+00
      79,    8.431685e+00,   -7.284783e+00,    0.000000e+00
      80,    6.048501e+00,   -5.825327e+00,    0.000000e+00
      81,    2.757098e+01,   -6.492947e+01,    0.000000e+00
      82,    2.521294e+01,   -6.055448e+01,    0.000000e+00
      83,    2.304402e+01,   -5.562765e+01,    0.000000e+00
      84,    2.182987e+01,   -5.063526e+01,    0.000000e+00
      85,    2.215391e+01,   -4.337764e+01,    0.000000e+00
      86,    1.981369e+01,   -4.051512e+01,    0.000000e+00
      87,    1.738083e+01,   -3.639900e+01,    0.000000e+00
      88,    1.627371e+01,   -3.313990e+01,    0.000000e+00
      89,    1.331413e+01,   -3.196364e+01,    0.000000e+00
      90,    8.427585e+00,   -2.830341e+01,    0.000000e+00
      91,    7.489601e+00,   -2.197942e+01,    0.000000e+00
      92,    7.501942e+00,   -1.855638e+01,    0.000000e+00
      93,    5.016225e+00,   -1.636921e+01,    0.000000e+00
      94,    2.284310e+00,   -1.291755e+01,    0.000000e+00
      95,   -3.448763e-01,   -8.838731e+00,    0.000000e+00
      96,   -2.750938e+00,   -4.541462e+00,    0.000000e+00
      97,   -7.917956e+00,   -5.264282e+00,    0.000000e+00
      98,   -1.334233e+01,   -5.439259e+00,    0.000000e+00
      99,   -1.872886e+01,   -4.781789e+00,    0.000000e+00
     100,   -2.295936e+01,   -3.836883e+00,    0.000000e+00
     101,   -2.528698e+01,   -6.620076e+00,    0.000000e+00
     102,   -2.764533e+01,   -1.100322e+01,    0.000000e+00
     103,    1.436640e+01,   -6.133732e+01,    0.000000e+00
     104,    2.164802e+01,   -4.631654e+01,    0.000000e+00
     105,    2.605167e+00,   -2.013051e+01,    0.000000e+00
     106,   -1.874840e+00,   -1.596369e+01,    0.000000e+00
     107,   -5.329211e+00,   -1.066225e+01,    0.000000e+00
     108,   -2.471329e+00,   -4.013500e+01,    0.000000e+00
     109,    8.242108e+00,   -3.859177e+01,    0.000000e+00
     110,   -1.146660e+01,   -1.180270e+01,    0.000000e+00
     111,   -1.858906e+01,   -1.064795e+01,    0.000000e+00
     112,   -1.663890e+01,   -2.227058e+01,    0.000000e+00
     113,   -7.411342e+00,   -1.974928e+01,    0.000000e+00
     114,    3.087112e-02,   -2.633681e+01,    0.000000e+00
     115,    1.384405e+01,   -3.755601e+01,    0.000000e+00
     116,    1.717260e+01,   -4.299943e+01,    0.000000e+00
     117,    1.433912e+01,   -4.677793e+01,    0.000000e+00
     118,    1.245791e+01,   -5.305337e+01,    0.000000e+00
**
********************************** E L E M E N T S ****************************
*ELEMENT, TYPE=S4R, ELSET=EB1
       1,      18,      20,      81,      45
       2,      20,      21,      82,      81
       3,      21,      22,      83,      82
       4,      22,      23,      84,      83
       5,      23,      24,     104,      84
       6,      24,      25,      85,     104
       7,      25,      26,      86,      85
       8,      26,      19,      87,      86
       9,      19,      35,      88,      87
      10,      35,      34,      89,      88
      11,      34,      33,      90,      89
      12,      33,      32,      91,      90
      13,      32,      31,      92,      91
      14,      31,      30,      93,      92
      15,      30,      29,      94,      93
      16,      29,      28,      95,      94
      17,      28,      27,      96,      95
      18,      27,       1,       3,      96
      19,       3,       4,      97,      96
      20,       4,       5,      98,      97
      21,       5,       6,      99,      98
      22,       6,       7,     100,      99
      23,       7,       8,     101,     100
      24,       2,      41,     102,       9
      25,      41,      42,     112,     102
      26,       8,       9,     102,     101
      27,      81,      82,     103,      45
      28,      85,      86,     116,     104
      29,      86,      87,     115,     116
      30,      90,      91,     105,     114
      31,      92,      93,     105,      91
      32,      93,      94,     106,     105
      33,      94,      95,     107,     106
      34,      95,      96,      97,     107
      35,      97,      98,     110,     107
      36,      98,      99,     111,     110
      37,     111,     112,     113,     110
      38,     112,     108,     114,     113
      39,      43,      40,      45,     103
      40,     106,     107,     110,     113
      41,     113,     114,     105,     106
      42,     115,      87,      88,      89
      43,     108,     112,      42,      43
      44,     111,      99,     100,     101
      45,     111,     101,     102,     112
      46,     108,     109,      90,     114
      47,     109,     115,      89,      90
      48,     116,     117,      84,     104
      49,     117,     118,      83,      84
      50,     118,     103,      82,      83
      51,     117,     116,     115,     109
      52,     118,     117,     109,     108
      53,     103,     118,     108,      43
*ELEMENT, TYPE=S4R, ELSET=EB2
      54,       1,      27,      46,      17
      55,      30,      31,      47,      71
      56,      31,      32,      48,      47
      57,      32,      33,      49,      48
      58,      33,      34,      50,      49
      59,      34,      35,      51,      50
      60,      35,      19,      52,      51
      61,      19,      26,      53,      52
      62,      26,      25,      54,      53
      63,      25,      24,      55,      54
      64,      24,      23,      56,      55
      65,      23,      22,      57,      56
      66,      22,      21,      58,      57
      67,      21,      20,      59,      58
      68,      20,      18,      44,      59
      69,      11,      12,      61,      60
      70,      12,      13,      62,      61
      71,      13,      14,      63,      62
      72,      14,      15,      64,      63
      73,      15,      16,      65,      64
      74,      16,      17,      46,      65
      75,      36,      37,      59,      44
      76,      37,      38,      66,      59
      77,      38,      39,      67,      66
      78,      61,      62,      72,      69
      79,      62,      63,      70,      72
      80,      63,      64,      71,      70
      81,      71,      47,      72,      70
      82,      47,      48,      69,      72
      83,      51,      52,      53,      73
      84,      53,      54,      74,      73
      85,      54,      55,      76,      74
      86,      55,      56,      75,      76
      87,      57,      58,      75,      56
      88,      66,      67,      76,      75
      89,      67,      68,      74,      76
      90,      73,      77,      50,      51
      91,      77,      78,      49,      50
      92,      78,      69,      48,      49
      93,      77,      73,      74,      68
      94,      78,      77,      68,      60
      95,      69,      78,      60,      61
      96,      59,      66,      75,      58
      97,      68,      67,      39,      10
      98,      68,      10,      11,      60
      99,      79,      29,      30,      71
     100,      64,      65,      79,      71
     101,      46,      27,      28,      80
     102,      80,      28,      29,      79
     103,      65,      46,      80,      79
**
********************************** S I D E S E T S **********************************
*ELSET, ELSET=SS1_E1
      24,      25,      39,      75,      76,      77
*ELSET, ELSET=SS1_E3
      43,      97
*SURFACE, NAME=SS1
SS1_E1, E1
SS1_E3, E3
*ELSET, ELSET=SS2_E1
      19,      20,      21,      22,      23,      26,      69,      70,      71,      72,
      73,      74
*ELSET, ELSET=SS2_E2
      18,      39,      68,      98
*ELSET, ELSET=SS2_E4
       1,      24,      54,      75
*SURFACE, NAME=SS2
SS2_E1, E1
SS2_E2, E2
SS2_E4, E4
*ELSET, ELSET=SS7_E1
       9,      10,      11,      12,      13,      14,      15,      16,      17,      18,
      54,      55,      56,      57,      58,      59,      60
*ELSET, ELSET=SS7_E2
      99,     101,     102
*SURFACE, NAME=SS7
SS7_E1, E1
SS7_E2, E2
*ELSET, ELSET=SS8_E1
       1,       2,       3,       4,       5,       6,       7,       8,      61,      62,
      63,      64,      65,      66,      67,      68
*SURFACE, NAME=SS8
SS8_E1, E1
**
********************************** P R O P E R T I E S ************************
*SHELL SECTION, ELSET=EB1, SECTION INTEGRATION=SIMPSON, MATERIAL=Default-Steel
1.000000e+00
*SHELL SECTION, ELSET=EB2, SECTION INTEGRATION=SIMPSON, MATERIAL=Default-Steel
1.000000e+00
**
*END PART
**
**
**
********************************** E N D   P A R T S **********************************
**
**
********************************** A S S E M B L Y ************************************
**
*ASSEMBLY, NAME=ASSEMBLY1
**
*INSTANCE, NAME=Part-Default_1, PART=Part-Default
*END INSTANCE
**
*END ASSEMBLY
**
**
**
*MATERIAL, NAME = Default-Steel
*ELASTIC, TYPE=ISOTROPIC
2.068000e+05, 2.900000e-01
*DENSITY
7.000000e-06
*CONDUCTIVITY,TYPE=ISO
4.500000e-02
*SPECIFIC HEAT
5.000000e+02
**
**
************************************** H I S T O R Y *************************************
**
*PREPRINT
**
**************************************** S T E P 1 ***************************************
*STEP,INC=100,NAME=Default Set
**
*STATIC
1, 1, 1e-05, 1
**
**
**
**
*END STEP
