*HEADING
cubit(sers/brittanyerickson/Desktop/test_mesh/BP9_2D_60d_v1.inp): 05/07/2026: 08
version: 2024.8
**
********************************** P A R T S **********************************
*PART, NAME=Part-Default
**
********************************** N O D E S **********************************
*NODE, NSET=ALLNODES
       1,    0.000000e+00,    0.000000e+00,    0.000000e+00
       2,    2.000000e+01,   -3.464102e+01,    0.000000e+00
       3,    1.000000e+00,   -1.732051e+00,    0.000000e+00
       4,    2.000000e+00,   -3.464102e+00,    0.000000e+00
       5,    3.000000e+00,   -5.196152e+00,    0.000000e+00
       6,    4.000000e+00,   -6.928203e+00,    0.000000e+00
       7,    5.000000e+00,   -8.660254e+00,    0.000000e+00
       8,    6.000000e+00,   -1.039230e+01,    0.000000e+00
       9,    7.000000e+00,   -1.212436e+01,    0.000000e+00
      10,    8.000000e+00,   -1.385641e+01,    0.000000e+00
      11,    9.000000e+00,   -1.558846e+01,    0.000000e+00
      12,    1.000000e+01,   -1.732051e+01,    0.000000e+00
      13,    1.100000e+01,   -1.905256e+01,    0.000000e+00
      14,    1.200000e+01,   -2.078461e+01,    0.000000e+00
      15,    1.300000e+01,   -2.251666e+01,    0.000000e+00
      16,    1.400000e+01,   -2.424871e+01,    0.000000e+00
      17,    1.500000e+01,   -2.598076e+01,    0.000000e+00
      18,    1.600000e+01,   -2.771281e+01,    0.000000e+00
      19,    1.700000e+01,   -2.944486e+01,    0.000000e+00
      20,    1.800000e+01,   -3.117691e+01,    0.000000e+00
      21,    1.900000e+01,   -3.290897e+01,    0.000000e+00
      22,   -6.000000e+01,    0.000000e+00,    0.000000e+00
      23,   -2.000000e+00,    0.000000e+00,    0.000000e+00
      24,   -5.003598e+00,    0.000000e+00,    0.000000e+00
      25,   -9.252295e+00,    0.000000e+00,    0.000000e+00
      26,   -1.491813e+01,    0.000000e+00,    0.000000e+00
      27,   -2.204516e+01,    0.000000e+00,    0.000000e+00
      28,   -3.050482e+01,    0.000000e+00,    0.000000e+00
      29,   -3.998094e+01,    0.000000e+00,    0.000000e+00
      30,   -5.000000e+01,    0.000000e+00,    0.000000e+00
      31,    6.000000e+01,    0.000000e+00,    0.000000e+00
      32,    5.000000e+01,    0.000000e+00,    0.000000e+00
      33,    3.998094e+01,    0.000000e+00,    0.000000e+00
      34,    3.050482e+01,    0.000000e+00,    0.000000e+00
      35,    2.204516e+01,    0.000000e+00,    0.000000e+00
      36,    1.491813e+01,    0.000000e+00,    0.000000e+00
      37,    9.252295e+00,    0.000000e+00,    0.000000e+00
      38,    5.003598e+00,    0.000000e+00,    0.000000e+00
      39,    2.000000e+00,    0.000000e+00,    0.000000e+00
      40,    3.464102e+01,   -6.000000e+01,    0.000000e+00
      41,    2.100000e+01,   -3.637307e+01,    0.000000e+00
      42,    2.295974e+01,   -3.976743e+01,    0.000000e+00
      43,    2.964102e+01,   -5.133975e+01,    0.000000e+00
      44,   -6.000000e+01,   -6.000000e+01,    0.000000e+00
      45,   -6.000000e+01,   -1.000000e+01,    0.000000e+00
      46,   -6.000000e+01,   -2.000000e+01,    0.000000e+00
      47,   -6.000000e+01,   -3.000000e+01,    0.000000e+00
      48,   -6.000000e+01,   -4.000000e+01,    0.000000e+00
      49,   -6.000000e+01,   -5.000000e+01,    0.000000e+00
      50,    6.000000e+01,   -6.000000e+01,    0.000000e+00
      51,    6.000000e+01,   -5.000000e+01,    0.000000e+00
      52,    6.000000e+01,   -4.000000e+01,    0.000000e+00
      53,    6.000000e+01,   -3.000000e+01,    0.000000e+00
      54,    6.000000e+01,   -2.000000e+01,    0.000000e+00
      55,    6.000000e+01,   -1.000000e+01,    0.000000e+00
      56,   -4.948433e+01,   -6.000000e+01,    0.000000e+00
      57,   -3.896866e+01,   -6.000000e+01,    0.000000e+00
      58,   -2.845299e+01,   -6.000000e+01,    0.000000e+00
      59,   -1.793733e+01,   -6.000000e+01,    0.000000e+00
      60,   -7.421658e+00,   -6.000000e+01,    0.000000e+00
      61,    3.094011e+00,   -6.000000e+01,    0.000000e+00
      62,    1.360968e+01,   -6.000000e+01,    0.000000e+00
      63,    2.412535e+01,   -6.000000e+01,    0.000000e+00
      64,    4.309401e+01,   -6.000000e+01,    0.000000e+00
      65,    5.154701e+01,   -6.000000e+01,    0.000000e+00
      66,    5.019284e+00,   -2.069265e+00,    0.000000e+00
      67,    4.325868e+00,   -3.878262e+00,    0.000000e+00
      68,    6.024095e+00,   -5.321542e+00,    0.000000e+00
      69,    7.795422e+00,   -7.216003e+00,    0.000000e+00
      70,    8.924616e+00,   -9.522945e+00,    0.000000e+00
      71,    9.347740e+00,   -1.170731e+01,    0.000000e+00
      72,    9.334151e+00,   -1.330360e+01,    0.000000e+00
      73,    1.061145e+01,   -1.432402e+01,    0.000000e+00
      74,    1.210638e+01,   -1.590185e+01,    0.000000e+00
      75,    1.341194e+01,   -1.776728e+01,    0.000000e+00
      76,    1.441769e+01,   -1.975959e+01,    0.000000e+00
      77,    1.521666e+01,   -2.170141e+01,    0.000000e+00
      78,    1.591322e+01,   -2.344858e+01,    0.000000e+00
      79,    1.697992e+01,   -2.499006e+01,    0.000000e+00
      80,    1.825962e+01,   -2.674202e+01,    0.000000e+00
      81,    1.933531e+01,   -2.864600e+01,    0.000000e+00
      82,    2.009108e+01,   -3.063934e+01,    0.000000e+00
      83,    2.029423e+01,   -3.223017e+01,    0.000000e+00
      84,    2.424151e+01,   -3.481517e+01,    0.000000e+00
      85,    2.840791e+01,   -3.862944e+01,    0.000000e+00
      86,    3.706645e+01,   -4.869962e+01,    0.000000e+00
      87,    5.010034e+01,   -8.933437e+00,    0.000000e+00
      88,    4.044360e+01,   -8.029635e+00,    0.000000e+00
      89,    3.110864e+01,   -7.265875e+00,    0.000000e+00
      90,    2.130647e+01,   -7.150941e+00,    0.000000e+00
      91,    1.231767e+01,   -4.999255e+00,    0.000000e+00
      92,    7.948402e+00,   -3.069048e+00,    0.000000e+00
      93,    4.909076e+01,   -2.651234e+01,    0.000000e+00
      94,    4.997555e+01,   -1.791756e+01,    0.000000e+00
      95,    1.258832e+01,   -9.436616e+00,    0.000000e+00
      96,    1.180382e+01,   -1.235312e+01,    0.000000e+00
      97,    1.413128e+01,   -1.401024e+01,    0.000000e+00
      98,    1.588283e+01,   -1.634058e+01,    0.000000e+00
      99,    1.692873e+01,   -1.885475e+01,    0.000000e+00
     100,    1.740304e+01,   -2.114185e+01,    0.000000e+00
     101,    2.056192e+01,   -2.538227e+01,    0.000000e+00
     102,    2.216508e+01,   -2.786710e+01,    0.000000e+00
     103,    2.253738e+01,   -3.066850e+01,    0.000000e+00
     104,    2.177422e+01,   -3.309737e+01,    0.000000e+00
     105,    3.328273e+01,   -3.517163e+01,    0.000000e+00
     106,    4.611766e+01,   -4.559044e+01,    0.000000e+00
     107,    2.667923e+01,   -3.144026e+01,    0.000000e+00
     108,    4.024862e+01,   -1.573027e+01,    0.000000e+00
     109,    3.895889e+01,   -2.298409e+01,    0.000000e+00
     110,    3.165935e+01,   -1.421983e+01,    0.000000e+00
     111,    2.453021e+01,   -1.355094e+01,    0.000000e+00
     112,    1.662619e+01,   -1.135509e+01,    0.000000e+00
     113,    1.921109e+01,   -1.476884e+01,    0.000000e+00
     114,    2.018564e+01,   -1.838369e+01,    0.000000e+00
     115,    2.736841e+01,   -2.618302e+01,    0.000000e+00
     116,    3.651340e+01,   -2.955491e+01,    0.000000e+00
     117,    4.770090e+01,   -3.537971e+01,    0.000000e+00
     118,    3.052812e+01,   -2.053797e+01,    0.000000e+00
     119,    1.987338e+01,   -2.148075e+01,    0.000000e+00
     120,    1.735777e+01,   -2.276864e+01,    0.000000e+00
     121,    1.875705e+01,   -2.371551e+01,    0.000000e+00
     122,    2.459339e+01,   -1.874127e+01,    0.000000e+00
     123,    2.324096e+01,   -2.292712e+01,    0.000000e+00
     124,    2.858750e+00,   -1.635375e+00,    0.000000e+00
     125,    3.061539e+00,   -2.992580e+00,    0.000000e+00
     126,    2.061453e+01,   -5.163618e+01,    0.000000e+00
     127,    1.811548e+01,   -4.384219e+01,    0.000000e+00
     128,    1.708586e+01,   -3.892972e+01,    0.000000e+00
     129,    1.688181e+01,   -3.575486e+01,    0.000000e+00
     130,    1.716524e+01,   -3.367860e+01,    0.000000e+00
     131,    1.568536e+01,   -3.233200e+01,    0.000000e+00
     132,    1.441078e+01,   -3.036083e+01,    0.000000e+00
     133,    1.346220e+01,   -2.824756e+01,    0.000000e+00
     134,    1.284300e+01,   -2.619945e+01,    0.000000e+00
     135,    1.284337e+01,   -2.467487e+01,    0.000000e+00
     136,    1.166439e+01,   -2.352814e+01,    0.000000e+00
     137,    1.067293e+01,   -2.179166e+01,    0.000000e+00
     138,    9.837735e+00,   -2.023207e+01,    0.000000e+00
     139,    8.688970e+00,   -1.891240e+01,    0.000000e+00
     140,    7.347969e+00,   -1.738485e+01,    0.000000e+00
     141,    5.968768e+00,   -1.566281e+01,    0.000000e+00
     142,    4.635183e+00,   -1.375117e+01,    0.000000e+00
     143,    3.488280e+00,   -1.169699e+01,    0.000000e+00
     144,    2.654509e+00,   -9.587180e+00,    0.000000e+00
     145,    2.528082e+00,   -7.747538e+00,    0.000000e+00
     146,    1.007793e+00,   -6.674362e+00,    0.000000e+00
     147,   -4.311229e-01,   -4.775029e+00,    0.000000e+00
     148,   -1.498187e+00,   -2.482854e+00,    0.000000e+00
     149,   -4.578008e+00,   -3.366724e+00,    0.000000e+00
     150,   -8.741940e+00,   -4.409428e+00,    0.000000e+00
     151,   -1.408895e+01,   -5.906543e+00,    0.000000e+00
     152,   -2.180022e+01,   -8.974437e+00,    0.000000e+00
     153,   -3.114223e+01,   -8.812067e+00,    0.000000e+00
     154,   -4.026521e+01,   -9.323069e+00,    0.000000e+00
     155,   -4.987256e+01,   -9.837445e+00,    0.000000e+00
     156,   -4.974079e+01,   -1.956705e+01,    0.000000e+00
     157,   -4.911683e+01,   -2.969997e+01,    0.000000e+00
     158,   -4.924616e+01,   -3.976032e+01,    0.000000e+00
     159,   -4.939174e+01,   -4.984728e+01,    0.000000e+00
     160,   -3.897651e+01,   -4.997691e+01,    0.000000e+00
     161,   -2.908402e+01,   -5.076093e+01,    0.000000e+00
     162,   -1.914136e+01,   -5.087276e+01,    0.000000e+00
     163,   -7.897453e+00,   -4.950728e+01,    0.000000e+00
     164,    3.116964e+00,   -5.181951e+01,    0.000000e+00
     165,    1.219589e+01,   -5.219613e+01,    0.000000e+00
     166,    1.164881e+01,   -4.512675e+01,    0.000000e+00
     167,    1.193017e+01,   -3.950221e+01,    0.000000e+00
     168,    1.265121e+01,   -3.481808e+01,    0.000000e+00
     169,    1.127467e+01,   -3.123486e+01,    0.000000e+00
     170,    1.057435e+01,   -2.830924e+01,    0.000000e+00
     171,    1.022950e+01,   -2.522681e+01,    0.000000e+00
     172,    9.150981e+00,   -2.263409e+01,    0.000000e+00
     173,    8.871152e+00,   -2.113859e+01,    0.000000e+00
     174,    7.592109e+00,   -2.052332e+01,    0.000000e+00
     175,    2.155114e+00,   -1.569121e+01,    0.000000e+00
     176,    5.210059e-01,   -1.306277e+01,    0.000000e+00
     177,   -7.974680e-01,   -9.603368e+00,    0.000000e+00
     178,   -3.251883e+00,   -6.602566e+00,    0.000000e+00
     179,   -7.085962e+00,   -8.469002e+00,    0.000000e+00
     180,   -1.160887e+01,   -1.085378e+01,    0.000000e+00
     181,   -1.632053e+01,   -1.437722e+01,    0.000000e+00
     182,   -3.188056e+01,   -1.672345e+01,    0.000000e+00
     183,   -4.001238e+01,   -1.872533e+01,    0.000000e+00
     184,   -2.512438e+01,   -1.652930e+01,    0.000000e+00
     185,   -1.997584e+01,   -1.913305e+01,    0.000000e+00
     186,   -3.763286e+01,   -2.928233e+01,    0.000000e+00
     187,   -3.893570e+01,   -4.020432e+01,    0.000000e+00
     188,   -2.949309e+01,   -4.208548e+01,    0.000000e+00
     189,   -2.112955e+01,   -4.279105e+01,    0.000000e+00
     190,   -1.352160e+01,   -4.135600e+01,    0.000000e+00
     191,    4.614615e+00,   -4.469047e+01,    0.000000e+00
     192,   -2.518477e+00,   -4.217633e+01,    0.000000e+00
     193,   -7.846395e+00,   -3.759454e+01,    0.000000e+00
     194,    6.094561e+00,   -3.905675e+01,    0.000000e+00
     195,    7.245392e+00,   -3.469976e+01,    0.000000e+00
     196,    7.627286e+00,   -3.124918e+01,    0.000000e+00
     197,    7.355970e+00,   -2.825545e+01,    0.000000e+00
     198,    7.195630e+00,   -2.527152e+01,    0.000000e+00
     199,    7.130643e+00,   -2.255332e+01,    0.000000e+00
     200,   -2.308456e-01,   -1.822727e+01,    0.000000e+00
     201,   -2.665064e+00,   -1.548270e+01,    0.000000e+00
     202,   -4.847434e+00,   -1.209293e+01,    0.000000e+00
     203,   -8.617248e+00,   -1.492898e+01,    0.000000e+00
     204,   -1.224866e+01,   -1.842837e+01,    0.000000e+00
     205,   -1.551149e+01,   -2.233698e+01,    0.000000e+00
     206,   -1.844790e+01,   -2.645698e+01,    0.000000e+00
     207,   -2.255230e+01,   -2.371737e+01,    0.000000e+00
     208,   -2.609138e+01,   -2.126303e+01,    0.000000e+00
     209,   -3.034476e+01,   -2.353664e+01,    0.000000e+00
     210,   -2.873968e+01,   -3.408242e+01,    0.000000e+00
     211,   -2.180751e+01,   -3.586878e+01,    0.000000e+00
     212,   -1.609969e+01,   -3.564713e+01,    0.000000e+00
     213,   -1.168270e+01,   -3.292226e+01,    0.000000e+00
     214,   -7.988993e+00,   -2.931740e+01,    0.000000e+00
     215,   -3.837770e+00,   -3.319009e+01,    0.000000e+00
     216,    6.276807e-01,   -3.696543e+01,    0.000000e+00
     217,   -5.672304e+00,   -1.846380e+01,    0.000000e+00
     218,    2.988081e+00,   -3.306377e+01,    0.000000e+00
     219,    4.874499e+00,   -3.082330e+01,    0.000000e+00
     220,    4.156802e+00,   -2.813239e+01,    0.000000e+00
     221,    4.195630e+00,   -2.482232e+01,    0.000000e+00
     222,   -8.566322e+00,   -2.199291e+01,    0.000000e+00
     223,   -1.167699e+01,   -2.570526e+01,    0.000000e+00
     224,   -1.467494e+01,   -2.920183e+01,    0.000000e+00
     225,   -1.724777e+01,   -3.180109e+01,    0.000000e+00
     226,   -2.096867e+01,   -3.055432e+01,    0.000000e+00
     227,   -2.587192e+01,   -2.793149e+01,    0.000000e+00
     228,    8.154653e-01,   -2.379477e+01,    0.000000e+00
     229,   -2.597960e-01,   -2.879796e+01,    0.000000e+00
     230,    5.882130e+00,   -1.937267e+01,    0.000000e+00
     231,    4.031690e+00,   -1.774665e+01,    0.000000e+00
     232,    4.801641e+00,   -2.181362e+01,    0.000000e+00
     233,    2.283781e+00,   -2.038937e+01,    0.000000e+00
     234,   -2.554373e+00,   -2.146031e+01,    0.000000e+00
     235,   -4.880919e+00,   -2.540514e+01,    0.000000e+00
**
********************************** E L E M E N T S ****************************
*ELEMENT, TYPE=S4R, ELSET=EB1
       1,      40,      43,     126,      63
       2,      43,      42,     127,     126
       3,      42,      41,     128,     127
       4,      41,       2,     129,     128
       5,       2,      21,     130,     129
       6,      21,      20,     131,     130
       7,      20,      19,     132,     131
       8,      19,      18,     133,     132
       9,      18,      17,     134,     133
      10,      17,      16,     135,     134
      11,      16,      15,     136,     135
      12,      15,      14,     137,     136
      13,      14,      13,     138,     137
      14,      13,      12,     139,     138
      15,      12,      11,     140,     139
      16,      11,      10,     141,     140
      17,      10,       9,     142,     141
      18,       9,       8,     143,     142
      19,       8,       7,     144,     143
      20,       7,       6,     145,     144
      21,       6,       5,     146,     145
      22,       5,       4,     147,     146
      23,       4,       3,     148,     147
      24,       3,       1,      23,     148
      25,      23,      24,     149,     148
      26,      24,      25,     150,     149
      27,      25,      26,     151,     150
      28,      26,      27,     152,     151
      29,      27,      28,     153,     152
      30,      28,      29,     154,     153
      31,      29,      30,     155,     154
      32,      30,      22,      45,     155
      33,      45,      46,     156,     155
      34,      46,      47,     157,     156
      35,      47,      48,     158,     157
      36,      48,      49,     159,     158
      37,      49,      44,      56,     159
      38,      56,      57,     160,     159
      39,      57,      58,     161,     160
      40,      58,      59,     162,     161
      41,      59,      60,     163,     162
      42,      60,      61,     164,     163
      43,      61,      62,     165,     164
      44,      62,      63,     126,     165
      45,     126,     127,     166,     165
      46,     127,     128,     167,     166
      47,     128,     129,     168,     167
      48,     130,     131,     168,     129
      49,     131,     132,     169,     168
      50,     132,     133,     170,     169
      51,     133,     134,     171,     170
      52,     135,     136,     171,     134
      53,     136,     137,     172,     171
      54,     137,     138,     173,     172
      55,     138,     139,     174,     173
      56,     141,     142,     175,     231
      57,     142,     143,     176,     175
      58,     143,     144,     177,     176
      59,     145,     146,     177,     144
      60,     146,     147,     178,     177
      61,     147,     148,     149,     178
      62,     149,     150,     179,     178
      63,     150,     151,     180,     179
      64,     151,     152,     181,     180
      65,     153,     154,     183,     182
      66,     154,     155,     156,     183
      67,     152,     153,     182,     184
      68,     181,     152,     184,     185
      69,     156,     157,     186,     183
      70,     157,     158,     187,     186
      71,     158,     159,     160,     187
      72,     160,     161,     188,     187
      73,     161,     162,     189,     188
      74,     162,     163,     190,     189
      75,     164,     165,     166,     191
      76,     163,     164,     191,     192
      77,     190,     163,     192,     193
      78,     166,     167,     194,     191
      79,     167,     168,     195,     194
      80,     168,     169,     196,     195
      81,     169,     170,     197,     196
      82,     170,     171,     198,     197
      83,     171,     172,     199,     198
      84,     173,     174,     199,     172
      85,     231,     175,     200,     233
      86,     175,     176,     201,     200
      87,     176,     177,     202,     201
      88,     177,     178,     179,     202
      89,     179,     180,     203,     202
      90,     180,     181,     204,     203
      91,     181,     185,     205,     204
      92,     185,     207,     206,     205
      93,     185,     184,     208,     207
      94,     184,     182,     209,     208
      95,     182,     183,     186,     209
      96,     187,     188,     210,     186
      97,     188,     189,     211,     210
      98,     189,     190,     212,     211
      99,     190,     193,     213,     212
     100,     193,     215,     214,     213
     101,     193,     192,     216,     215
     102,     192,     191,     194,     216
     103,     202,     203,     217,     201
     104,     194,     195,     218,     216
     105,     195,     196,     219,     218
     106,     196,     197,     220,     219
     107,     197,     198,     221,     220
     108,     233,     200,     234,     228
     109,     200,     201,     217,     234
     110,     203,     204,     222,     217
     111,     204,     205,     223,     222
     112,     205,     206,     224,     223
     113,     206,     226,     225,     224
     114,     206,     207,     227,     226
     115,     207,     208,     209,     227
     116,     186,     210,     227,     209
     117,     210,     211,     226,     227
     118,     211,     212,     225,     226
     119,     212,     213,     224,     225
     120,     213,     214,     223,     224
     121,     223,     214,     235,     222
     122,     216,     218,     229,     215
     123,     219,     220,     229,     218
     124,     139,     140,     230,     174
     125,     140,     141,     231,     230
     126,     230,     231,     233,     232
     127,     174,     230,     232,     199
     128,     199,     232,     221,     198
     129,     232,     233,     228,     221
     130,     229,     220,     221,     228
     131,     229,     235,     214,     215
     132,     217,     222,     235,     234
     133,     234,     235,     229,     228
*ELEMENT, TYPE=S4R, ELSET=EB2
     134,       5,       6,      68,      67
     135,       6,       7,      69,      68
     136,       7,       8,      70,      69
     137,       8,       9,      71,      70
     138,       9,      10,      72,      71
     139,      10,      11,      73,      72
     140,      11,      12,      74,      73
     141,      12,      13,      75,      74
     142,      13,      14,      76,      75
     143,      14,      15,      77,      76
     144,      15,      16,      78,      77
     145,      16,      17,      79,      78
     146,      17,      18,      80,      79
     147,      18,      19,      81,      80
     148,      19,      20,      82,      81
     149,      20,      21,      83,      82
     150,      21,       2,     104,      83
     151,       2,      41,      84,     104
     152,      41,      42,      85,      84
     153,      42,      43,      86,      85
     154,      43,      40,      64,      86
     155,      31,      32,      87,      55
     156,      32,      33,      88,      87
     157,      33,      34,      89,      88
     158,      34,      35,      90,      89
     159,      35,      36,      91,      90
     160,      36,      37,      92,      91
     161,      37,      38,      66,      92
     162,      64,      65,     106,      86
     163,      65,      50,      51,     106
     164,      51,      52,     117,     106
     165,      52,      53,      93,     117
     166,      53,      54,      94,      93
     167,      54,      55,      87,      94
     168,      66,      67,      68,      92
     169,      68,      69,      91,      92
     170,      69,      70,      95,      91
     171,      70,      71,      96,      95
     172,      72,      73,      96,      71
     173,      73,      74,      97,      96
     174,      74,      75,      98,      97
     175,      75,      76,      99,      98
     176,      76,      77,     100,      99
     177,      79,      80,     101,     121
     178,      80,      81,     102,     101
     179,      81,      82,     103,     102
     180,      83,     104,     103,      82
     181,      84,      85,     105,     107
     182,     104,      84,     107,     103
     183,      94,      87,      88,     108
     184,      88,      89,     110,     108
     185,      89,      90,     111,     110
     186,      90,      91,      95,     112
     187,     111,      90,     112,     113
     188,      95,      96,      97,     112
     189,     112,      97,      98,     113
     190,      98,      99,     114,     113
     191,      99,     100,     119,     114
     192,     103,     107,     115,     102
     193,     107,     105,     116,     115
     194,     105,     106,     117,     116
     195,     108,     110,     118,     109
     196,     109,     118,     115,     116
     197,      86,     106,     105,      85
     198,     108,     109,      93,      94
     199,     109,     116,     117,      93
     200,      77,      78,     120,     100
     201,      78,      79,     121,     120
     202,     100,     120,     121,     119
     203,     111,     113,     114,     122
     204,     122,     114,     119,     123
     205,     123,     119,     121,     101
     206,     110,     111,     122,     118
     207,     118,     122,     123,     115
     208,     115,     123,     101,     102
     209,      39,       1,       3,     124
     210,     124,      66,      38,      39
     211,     124,       3,       4,     125
     212,     125,       4,       5,      67
     213,      66,     124,     125,      67
**
********************************** S I D E S E T S **********************************
*ELSET, ELSET=SS1_E1
      33,      34,      35,      36,      37,     164,     165,     166,     167
*ELSET, ELSET=SS1_E2
      32,     163
*ELSET, ELSET=SS1_E4
     155
*SURFACE, NAME=SS1
SS1_E1, E1
SS1_E2, E2
SS1_E4, E4
*ELSET, ELSET=SS2_E1
      25,      26,      27,      28,      29,      30,      31,      32,      38,      39,
      40,      41,      42,      43,      44,     155,     156,     157,     158,     159,
     160,     161,     162,     163,     209
*ELSET, ELSET=SS2_E2
      24,      37,     154
*ELSET, ELSET=SS2_E3
     210
*ELSET, ELSET=SS2_E4
       1
*SURFACE, NAME=SS2
SS2_E1, E1
SS2_E2, E2
SS2_E3, E3
SS2_E4, E4
*ELSET, ELSET=SS7_E1
       5,       6,       7,       8,       9,      10,      11,      12,      13,      14,
      15,      16,      17,      18,      19,      20,      21,      22,      23,      24,
     134,     135,     136,     137,     138,     139,     140,     141,     142,     143,
     144,     145,     146,     147,     148,     149,     150
*ELSET, ELSET=SS7_E2
     209,     211,     212
*SURFACE, NAME=SS7
SS7_E1, E1
SS7_E2, E2
*ELSET, ELSET=SS8_E1
       1,       2,       3,       4,     151,     152,     153,     154
*SURFACE, NAME=SS8
SS8_E1, E1
**
********************************** P R O P E R T I E S ************************
*SHELL SECTION, ELSET=EB1, SECTION INTEGRATION=SIMPSON, MATERIAL=Default-Steel
1.000000e+00
*SHELL SECTION, ELSET=EB2, SECTION INTEGRATION=SIMPSON, MATERIAL=Default-Steel
1.000000e+00
**
*END PART
**
**
**
********************************** E N D   P A R T S **********************************
**
**
********************************** A S S E M B L Y ************************************
**
*ASSEMBLY, NAME=ASSEMBLY1
**
*INSTANCE, NAME=Part-Default_1, PART=Part-Default
*END INSTANCE
**
*END ASSEMBLY
**
**
**
*MATERIAL, NAME = Default-Steel
*ELASTIC, TYPE=ISOTROPIC
2.068000e+05, 2.900000e-01
*DENSITY
7.000000e-06
*CONDUCTIVITY,TYPE=ISO
4.500000e-02
*SPECIFIC HEAT
5.000000e+02
**
**
************************************** H I S T O R Y *************************************
**
*PREPRINT
**
**************************************** S T E P 1 ***************************************
*STEP,INC=100,NAME=Default Set
**
*STATIC
1, 1, 1e-05, 1
**
**
**
**
*END STEP
