*HEADING
cubit(brittanyerickson/Desktop/test_mesh/BP9_2D__60degree_v2inp): 05/29/2026: 15
version: 2024.8
**
********************************** P A R T S **********************************
*PART, NAME=Part-Default
**
********************************** N O D E S **********************************
*NODE, NSET=ALLNODES
       1,    0.000000e+00,    0.000000e+00,    0.000000e+00
       2,   -4.000000e+01,    0.000000e+00,    0.000000e+00
       3,   -1.000000e+01,    0.000000e+00,    0.000000e+00
       4,   -1.475538e+01,    0.000000e+00,    0.000000e+00
       5,   -1.768827e+01,    0.000000e+00,    0.000000e+00
       6,   -1.999967e+01,    0.000000e+00,    0.000000e+00
       7,   -2.231131e+01,    0.000000e+00,    0.000000e+00
       8,   -2.524467e+01,    0.000000e+00,    0.000000e+00
       9,   -3.000000e+01,    0.000000e+00,    0.000000e+00
      10,    4.000000e+01,    0.000000e+00,    0.000000e+00
      11,    3.000000e+01,    0.000000e+00,    0.000000e+00
      12,    2.524467e+01,    0.000000e+00,    0.000000e+00
      13,    2.231131e+01,    0.000000e+00,    0.000000e+00
      14,    1.999967e+01,    0.000000e+00,    0.000000e+00
      15,    1.768827e+01,    0.000000e+00,    0.000000e+00
      16,    1.475538e+01,    0.000000e+00,    0.000000e+00
      17,    1.000000e+01,    0.000000e+00,    0.000000e+00
      18,    4.000000e+01,   -6.928000e+01,    0.000000e+00
      19,    2.000000e+01,   -3.464000e+01,    0.000000e+00
      20,    3.499989e+01,   -6.061981e+01,    0.000000e+00
      21,    3.262225e+01,   -5.650174e+01,    0.000000e+00
      22,    3.115561e+01,   -5.396152e+01,    0.000000e+00
      23,    2.999984e+01,   -5.195971e+01,    0.000000e+00
      24,    2.884418e+01,   -4.995812e+01,    0.000000e+00
      25,    2.737778e+01,   -4.741831e+01,    0.000000e+00
      26,    2.500011e+01,   -4.330019e+01,    0.000000e+00
      27,    5.000000e+00,   -8.660000e+00,    0.000000e+00
      28,    1.000000e+01,   -1.732000e+01,    0.000000e+00
      29,    1.500000e+01,   -2.598000e+01,    0.000000e+00
      30,    8.000000e+01,   -6.928000e+01,    0.000000e+00
      31,    7.500000e+01,   -6.062000e+01,    0.000000e+00
      32,    7.000000e+01,   -5.196000e+01,    0.000000e+00
      33,    6.500000e+01,   -4.330000e+01,    0.000000e+00
      34,    6.000000e+01,   -3.464000e+01,    0.000000e+00
      35,    5.500000e+01,   -2.598000e+01,    0.000000e+00
      36,    5.000000e+01,   -1.732000e+01,    0.000000e+00
      37,    4.500000e+01,   -8.660000e+00,    0.000000e+00
      38,    0.000000e+00,   -6.928000e+01,    0.000000e+00
      39,   -3.500000e+01,   -8.660000e+00,    0.000000e+00
      40,   -3.000000e+01,   -1.732000e+01,    0.000000e+00
      41,   -2.500000e+01,   -2.598000e+01,    0.000000e+00
      42,   -2.000000e+01,   -3.464000e+01,    0.000000e+00
      43,   -1.500000e+01,   -4.330000e+01,    0.000000e+00
      44,   -1.000000e+01,   -5.196000e+01,    0.000000e+00
      45,   -5.000000e+00,   -6.062000e+01,    0.000000e+00
      46,    5.000000e+01,   -6.928000e+01,    0.000000e+00
      47,    6.000000e+01,   -6.928000e+01,    0.000000e+00
      48,    7.000000e+01,   -6.928000e+01,    0.000000e+00
      49,    1.000000e+01,   -6.928000e+01,    0.000000e+00
      50,    2.000000e+01,   -6.928000e+01,    0.000000e+00
      51,    3.000000e+01,   -6.928000e+01,    0.000000e+00
      52,    1.099976e+01,   -6.205238e+00,    0.000000e+00
      53,    1.438318e+01,   -1.228841e+01,    0.000000e+00
      54,    1.933126e+01,   -1.917240e+01,    0.000000e+00
      55,    2.517462e+01,   -2.765215e+01,    0.000000e+00
      56,    2.964933e+01,   -3.742382e+01,    0.000000e+00
      57,    3.152444e+01,   -4.427131e+01,    0.000000e+00
      58,    3.159101e+01,   -4.864671e+01,    0.000000e+00
      59,    3.170293e+01,   -5.078058e+01,    0.000000e+00
      60,    3.343584e+01,   -5.195423e+01,    0.000000e+00
      61,    3.570714e+01,   -5.385933e+01,    0.000000e+00
      62,    3.968382e+01,   -5.580495e+01,    0.000000e+00
      63,    3.586633e+01,   -8.695538e+00,    0.000000e+00
      64,    6.961435e+01,   -6.342050e+01,    0.000000e+00
      65,    4.816733e+01,   -3.845234e+01,    0.000000e+00
      66,    4.505527e+01,   -2.886033e+01,    0.000000e+00
      67,    4.037580e+01,   -1.887231e+01,    0.000000e+00
      68,    6.384305e+01,   -6.036149e+01,    0.000000e+00
      69,    2.308481e+01,   -5.169494e+00,    0.000000e+00
      70,    2.846671e+01,   -7.394609e+00,    0.000000e+00
      71,    3.471028e+01,   -4.910861e+01,    0.000000e+00
      72,    3.724569e+01,   -5.079028e+01,    0.000000e+00
      73,    4.112716e+01,   -4.964740e+01,    0.000000e+00
      74,    4.933124e+01,   -4.797597e+01,    0.000000e+00
      75,    3.820034e+01,   -4.320203e+01,    0.000000e+00
      76,    3.643770e+01,   -3.254576e+01,    0.000000e+00
      77,    3.083164e+01,   -1.949592e+01,    0.000000e+00
      78,    4.652286e+01,   -5.796200e+01,    0.000000e+00
      79,    5.579281e+01,   -5.823808e+01,    0.000000e+00
      80,    1.756566e+01,   -2.579661e+00,    0.000000e+00
      81,    1.978792e+01,   -3.691777e+00,    0.000000e+00
      82,    1.522077e+01,   -4.047204e+00,    0.000000e+00
      83,    2.239681e+01,   -1.212625e+01,    0.000000e+00
      84,    1.779560e+01,   -7.673562e+00,    0.000000e+00
      85,    2.733216e+01,   -6.350237e+01,    0.000000e+00
      86,    2.555948e+01,   -5.925084e+01,    0.000000e+00
      87,    2.403933e+01,   -5.561240e+01,    0.000000e+00
      88,    2.084821e+01,   -4.549109e+01,    0.000000e+00
      89,    2.083304e+01,   -4.221063e+01,    0.000000e+00
      90,    1.665081e+01,   -3.784062e+01,    0.000000e+00
      91,    9.450822e+00,   -2.971444e+01,    0.000000e+00
      92,    2.057328e+00,   -1.921457e+01,    0.000000e+00
      93,   -3.364056e+00,   -8.758178e+00,    0.000000e+00
      94,   -1.113761e+01,   -7.415740e+00,    0.000000e+00
      95,   -1.664649e+01,   -5.214156e+00,    0.000000e+00
      96,   -2.009128e+01,   -3.768423e+00,    0.000000e+00
      97,   -2.232055e+01,   -2.677539e+00,    0.000000e+00
      98,   -2.476722e+01,   -4.148993e+00,    0.000000e+00
      99,   -2.904336e+01,   -6.243560e+00,    0.000000e+00
     100,   -2.548473e+01,   -1.240610e+01,    0.000000e+00
     101,   -2.009251e+01,   -1.935204e+01,    0.000000e+00
     102,   -1.265923e+01,   -2.814290e+01,    0.000000e+00
     103,    8.221365e+00,   -5.598771e+01,    0.000000e+00
     104,    1.219057e+01,   -5.996561e+01,    0.000000e+00
     105,    1.058805e+01,   -6.429956e+01,    0.000000e+00
     106,    1.877279e+01,   -6.428370e+01,    0.000000e+00
     107,    1.454090e+01,   -4.193925e+01,    0.000000e+00
     108,    3.892546e+00,   -3.438226e+01,    0.000000e+00
     109,   -7.860854e+00,   -1.981002e+01,    0.000000e+00
     110,   -2.190273e+01,   -7.900040e+00,    0.000000e+00
     111,   -1.723948e+01,   -1.222899e+01,    0.000000e+00
     112,    1.801550e+01,   -5.986580e+01,    0.000000e+00
     113,    1.666851e+01,   -5.578655e+01,    0.000000e+00
     114,    2.161429e+01,   -4.897224e+01,    0.000000e+00
     115,    1.516960e+01,   -5.143467e+01,    0.000000e+00
     116,    1.415256e+01,   -4.674371e+01,    0.000000e+00
     117,    3.612095e+00,   -5.003844e+01,    0.000000e+00
     118,   -1.336674e+00,   -4.090012e+01,    0.000000e+00
     119,    2.278825e+01,   -5.236683e+01,    0.000000e+00
**
********************************** E L E M E N T S ****************************
*ELEMENT, TYPE=S4R, ELSET=EB1
       1,      18,      20,      85,      51
       2,      20,      21,      86,      85
       3,      21,      22,      87,      86
       4,      24,      25,      88,     114
       5,      25,      26,      89,      88
       6,      26,      19,      90,      89
       7,      19,      29,      91,      90
       8,      29,      28,      92,      91
       9,      28,      27,      93,      92
      10,      27,       1,       3,      93
      11,       3,       4,      94,      93
      12,       4,       5,      95,      94
      13,       5,       6,      96,      95
      14,       6,       7,      97,      96
      15,       7,       8,      98,      97
      16,       8,       9,      99,      98
      17,       9,       2,      39,      99
      18,      39,      40,     100,      99
      19,      40,      41,     101,     100
      20,      41,      42,     102,     101
      21,      45,      38,      49,     105
      22,      49,      50,     106,     105
      23,      50,      51,      85,     106
      24,      88,      89,      90,     107
      25,      90,      91,     108,     107
      26,      91,      92,     109,     108
      27,      96,      97,      98,     110
      28,      98,      99,     100,     110
      29,     100,     101,     111,     110
      30,     101,     102,     109,     111
      31,     102,     118,     108,     109
      32,     106,      85,      86,     112
      33,     112,      86,      87,     113
      34,     105,     106,     112,     104
      35,     104,     112,     113,     103
      36,     118,     116,     107,     108
      37,     111,      95,      96,     110
      38,     109,      92,      93,      94
      39,     109,      94,      95,     111
      40,      88,     107,     116,     114
      41,      87,     119,     115,     113
      42,     119,     114,     116,     115
      43,     115,     116,     118,     117
      44,     113,     115,     117,     103
      45,      43,     118,     102,      42
      46,      44,     117,     118,      43
      47,      45,     105,     104,     103
      48,      45,     103,     117,      44
      49,      87,      22,      23,     119
      50,      23,      24,     114,     119
*ELEMENT, TYPE=S4R, ELSET=EB2
      51,       1,      27,      52,      17
      52,      27,      28,      53,      52
      53,      28,      29,      54,      53
      54,      29,      19,      55,      54
      55,      19,      26,      56,      55
      56,      26,      25,      57,      56
      57,      25,      24,      58,      57
      58,      24,      23,      59,      58
      59,      23,      22,      60,      59
      60,      22,      21,      61,      60
      61,      21,      20,      62,      61
      62,      10,      11,      63,      37
      63,      11,      12,      70,      63
      64,      12,      13,      69,      70
      65,      30,      31,      64,      48
      66,      31,      32,      68,      64
      67,      33,      34,      65,      74
      68,      34,      35,      66,      65
      69,      35,      36,      67,      66
      70,      36,      37,      63,      67
      71,      47,      48,      64,      68
      72,      55,      56,      76,      77
      73,      56,      57,      75,      76
      74,      57,      58,      71,      75
      75,      59,      60,      71,      58
      76,      60,      61,      72,      71
      77,      61,      62,      73,      72
      78,      74,      65,      75,      73
      79,      65,      66,      76,      75
      80,      66,      67,      77,      76
      81,      70,      77,      67,      63
      82,      73,      75,      71,      72
      83,      62,      20,      18,      78
      84,      78,      18,      46,      79
      85,      79,      46,      47,      68
      86,      73,      62,      78,      74
      87,      74,      78,      79,      33
      88,      33,      79,      68,      32
      89,      15,      80,      81,      14
      90,      14,      81,      69,      13
      91,      16,      17,      52,      82
      92,      15,      16,      82,      80
      93,      77,      70,      69,      83
      94,      55,      77,      83,      54
      95,      83,      69,      81,      84
      96,      54,      83,      84,      53
      97,      84,      81,      80,      82
      98,      84,      82,      52,      53
**
********************************** S I D E S E T S **********************************
*ELSET, ELSET=SS1_E1
      18,      19,      20,      21,      65,      66,      67,      68,      69,      70
*ELSET, ELSET=SS1_E2
      17
*ELSET, ELSET=SS1_E4
      45,      46,      48,      62,      88
*SURFACE, NAME=SS1
SS1_E1, E1
SS1_E2, E2
SS1_E4, E4
*ELSET, ELSET=SS2_E1
      11,      12,      13,      14,      15,      16,      17,      22,      23,      62,
      63,      64,      71,      91,      92
*ELSET, ELSET=SS2_E2
      10,      21,      84,      85
*ELSET, ELSET=SS2_E4
       1,      51,      65,      89,      90
*SURFACE, NAME=SS2
SS2_E1, E1
SS2_E2, E2
SS2_E4, E4
*ELSET, ELSET=SS7_E1
       7,       8,       9,      10,      51,      52,      53,      54
*SURFACE, NAME=SS7
SS7_E1, E1
*ELSET, ELSET=SS8_E1
       1,       2,       3,       4,       5,       6,      50,      55,      56,      57,
      58,      59,      60,      61
*ELSET, ELSET=SS8_E2
      49,      83
*SURFACE, NAME=SS8
SS8_E1, E1
SS8_E2, E2
**
********************************** P R O P E R T I E S ************************
*SHELL SECTION, ELSET=EB1, SECTION INTEGRATION=SIMPSON, MATERIAL=Default-Steel
1.000000e+00
*SHELL SECTION, ELSET=EB2, SECTION INTEGRATION=SIMPSON, MATERIAL=Default-Steel
1.000000e+00
**
*END PART
**
**
**
********************************** E N D   P A R T S **********************************
**
**
********************************** A S S E M B L Y ************************************
**
*ASSEMBLY, NAME=ASSEMBLY1
**
*INSTANCE, NAME=Part-Default_1, PART=Part-Default
*END INSTANCE
**
*END ASSEMBLY
**
**
**
*MATERIAL, NAME = Default-Steel
*ELASTIC, TYPE=ISOTROPIC
2.068000e+05, 2.900000e-01
*DENSITY
7.000000e-06
*CONDUCTIVITY,TYPE=ISO
4.500000e-02
*SPECIFIC HEAT
5.000000e+02
**
**
************************************** H I S T O R Y *************************************
**
*PREPRINT
**
**************************************** S T E P 1 ***************************************
*STEP,INC=100,NAME=Default Set
**
*STATIC
1, 1, 1e-05, 1
**
**
**
**
*END STEP
