*HEADING
cubit(sers/brittanyerickson/Desktop/test_mesh/BP9_2D_90d_v1.inp): 03/17/2026: 16
version: 2024.8
**
********************************** P A R T S **********************************
*PART, NAME=Part-Default
**
********************************** N O D E S **********************************
*NODE, NSET=ALLNODES
       1,    0.000000e+00,    0.000000e+00,    0.000000e+00
       2,    0.000000e+00,   -4.000000e+01,    0.000000e+00
       3,    0.000000e+00,   -3.076923e+00,    0.000000e+00
       4,    0.000000e+00,   -6.153846e+00,    0.000000e+00
       5,    0.000000e+00,   -9.230769e+00,    0.000000e+00
       6,    0.000000e+00,   -1.230769e+01,    0.000000e+00
       7,    0.000000e+00,   -1.538462e+01,    0.000000e+00
       8,    0.000000e+00,   -1.846154e+01,    0.000000e+00
       9,    0.000000e+00,   -2.153846e+01,    0.000000e+00
      10,    0.000000e+00,   -2.461538e+01,    0.000000e+00
      11,    0.000000e+00,   -2.769231e+01,    0.000000e+00
      12,    0.000000e+00,   -3.076923e+01,    0.000000e+00
      13,    0.000000e+00,   -3.384615e+01,    0.000000e+00
      14,    0.000000e+00,   -3.692308e+01,    0.000000e+00
      15,   -8.000000e+02,    0.000000e+00,    0.000000e+00
      16,   -3.000000e+00,    0.000000e+00,    0.000000e+00
      17,   -7.420278e+00,    0.000000e+00,    0.000000e+00
      18,   -1.376225e+01,    0.000000e+00,    0.000000e+00
      19,   -2.262378e+01,    0.000000e+00,    0.000000e+00
      20,   -3.468432e+01,    0.000000e+00,    0.000000e+00
      21,   -5.067486e+01,    0.000000e+00,    0.000000e+00
      22,   -7.133125e+01,    0.000000e+00,    0.000000e+00
      23,   -9.733225e+01,    0.000000e+00,    0.000000e+00
      24,   -1.292263e+02,    0.000000e+00,    0.000000e+00
      25,   -1.673544e+02,    0.000000e+00,    0.000000e+00
      26,   -2.117783e+02,    0.000000e+00,    0.000000e+00
      27,   -2.622263e+02,    0.000000e+00,    0.000000e+00
      28,   -3.180648e+02,    0.000000e+00,    0.000000e+00
      29,   -3.783058e+02,    0.000000e+00,    0.000000e+00
      30,   -4.416524e+02,    0.000000e+00,    0.000000e+00
      31,   -5.065793e+02,    0.000000e+00,    0.000000e+00
      32,   -5.714424e+02,    0.000000e+00,    0.000000e+00
      33,   -6.346021e+02,    0.000000e+00,    0.000000e+00
      34,   -6.945468e+02,    0.000000e+00,    0.000000e+00
      35,   -7.500000e+02,    0.000000e+00,    0.000000e+00
      36,    8.000000e+02,    0.000000e+00,    0.000000e+00
      37,    7.500000e+02,    0.000000e+00,    0.000000e+00
      38,    6.945468e+02,    0.000000e+00,    0.000000e+00
      39,    6.346021e+02,    0.000000e+00,    0.000000e+00
      40,    5.714424e+02,    0.000000e+00,    0.000000e+00
      41,    5.065793e+02,    0.000000e+00,    0.000000e+00
      42,    4.416524e+02,    0.000000e+00,    0.000000e+00
      43,    3.783058e+02,    0.000000e+00,    0.000000e+00
      44,    3.180648e+02,    0.000000e+00,    0.000000e+00
      45,    2.622263e+02,    0.000000e+00,    0.000000e+00
      46,    2.117783e+02,    0.000000e+00,    0.000000e+00
      47,    1.673544e+02,    0.000000e+00,    0.000000e+00
      48,    1.292263e+02,    0.000000e+00,    0.000000e+00
      49,    9.733225e+01,    0.000000e+00,    0.000000e+00
      50,    7.133125e+01,    0.000000e+00,    0.000000e+00
      51,    5.067486e+01,    0.000000e+00,    0.000000e+00
      52,    3.468432e+01,    0.000000e+00,    0.000000e+00
      53,    2.262378e+01,    0.000000e+00,    0.000000e+00
      54,    1.376225e+01,    0.000000e+00,    0.000000e+00
      55,    7.420278e+00,    0.000000e+00,    0.000000e+00
      56,    3.000000e+00,    0.000000e+00,    0.000000e+00
      57,    0.000000e+00,   -2.000000e+02,    0.000000e+00
      58,    0.000000e+00,   -4.300000e+01,    0.000000e+00
      59,    0.000000e+00,   -6.506875e+01,    0.000000e+00
      60,    0.000000e+00,   -1.500000e+02,    0.000000e+00
      61,   -8.000000e+02,   -2.000000e+02,    0.000000e+00
      62,   -8.000000e+02,   -5.000000e+01,    0.000000e+00
      63,   -8.000000e+02,   -1.000000e+02,    0.000000e+00
      64,   -8.000000e+02,   -1.500000e+02,    0.000000e+00
      65,    8.000000e+02,   -2.000000e+02,    0.000000e+00
      66,    8.000000e+02,   -1.500000e+02,    0.000000e+00
      67,    8.000000e+02,   -1.000000e+02,    0.000000e+00
      68,    8.000000e+02,   -5.000000e+01,    0.000000e+00
      69,   -7.500000e+02,   -2.000000e+02,    0.000000e+00
      70,   -7.000000e+02,   -2.000000e+02,    0.000000e+00
      71,   -6.500000e+02,   -2.000000e+02,    0.000000e+00
      72,   -6.000000e+02,   -2.000000e+02,    0.000000e+00
      73,   -5.500000e+02,   -2.000000e+02,    0.000000e+00
      74,   -5.000000e+02,   -2.000000e+02,    0.000000e+00
      75,   -4.500000e+02,   -2.000000e+02,    0.000000e+00
      76,   -4.000000e+02,   -2.000000e+02,    0.000000e+00
      77,   -3.500000e+02,   -2.000000e+02,    0.000000e+00
      78,   -3.000000e+02,   -2.000000e+02,    0.000000e+00
      79,   -2.500000e+02,   -2.000000e+02,    0.000000e+00
      80,   -2.000000e+02,   -2.000000e+02,    0.000000e+00
      81,   -1.500000e+02,   -2.000000e+02,    0.000000e+00
      82,   -1.000000e+02,   -2.000000e+02,    0.000000e+00
      83,   -5.000000e+01,   -2.000000e+02,    0.000000e+00
      84,    5.000000e+01,   -2.000000e+02,    0.000000e+00
      85,    1.000000e+02,   -2.000000e+02,    0.000000e+00
      86,    1.500000e+02,   -2.000000e+02,    0.000000e+00
      87,    2.000000e+02,   -2.000000e+02,    0.000000e+00
      88,    2.500000e+02,   -2.000000e+02,    0.000000e+00
      89,    3.000000e+02,   -2.000000e+02,    0.000000e+00
      90,    3.500000e+02,   -2.000000e+02,    0.000000e+00
      91,    4.000000e+02,   -2.000000e+02,    0.000000e+00
      92,    4.500000e+02,   -2.000000e+02,    0.000000e+00
      93,    5.000000e+02,   -2.000000e+02,    0.000000e+00
      94,    5.500000e+02,   -2.000000e+02,    0.000000e+00
      95,    6.000000e+02,   -2.000000e+02,    0.000000e+00
      96,    6.500000e+02,   -2.000000e+02,    0.000000e+00
      97,    7.000000e+02,   -2.000000e+02,    0.000000e+00
      98,    7.500000e+02,   -2.000000e+02,    0.000000e+00
      99,    5.358067e+00,   -1.170447e+01,    0.000000e+00
     100,    3.388736e+00,   -1.491821e+01,    0.000000e+00
     101,    4.469473e+00,   -1.771503e+01,    0.000000e+00
     102,    5.268239e+00,   -2.123298e+01,    0.000000e+00
     103,    5.350010e+00,   -2.494700e+01,    0.000000e+00
     104,    4.819185e+00,   -2.854606e+01,    0.000000e+00
     105,    3.844929e+00,   -3.177218e+01,    0.000000e+00
     106,    2.624466e+00,   -3.411101e+01,    0.000000e+00
     107,    3.958514e+00,   -3.665588e+01,    0.000000e+00
     108,    6.330746e+00,   -4.114262e+01,    0.000000e+00
     109,    1.005420e+01,   -5.061987e+01,    0.000000e+00
     110,    1.766886e+01,   -7.813232e+01,    0.000000e+00
     111,    3.885493e+01,   -1.421509e+02,    0.000000e+00
     112,    1.110427e+01,   -6.730497e+00,    0.000000e+00
     113,    2.259456e+00,   -5.746105e+00,    0.000000e+00
     114,    1.135769e+01,   -2.014243e+01,    0.000000e+00
     115,    1.177809e+01,   -2.538202e+01,    0.000000e+00
     116,    1.050553e+01,   -3.028442e+01,    0.000000e+00
     117,    7.597002e+00,   -3.427337e+01,    0.000000e+00
     118,    1.916471e+01,   -1.012119e+01,    0.000000e+00
     119,    2.095015e+01,   -1.858891e+01,    0.000000e+00
     120,    2.160572e+01,   -2.615457e+01,    0.000000e+00
     121,    2.311434e+01,   -3.476542e+01,    0.000000e+00
     122,    1.421578e+01,   -3.977270e+01,    0.000000e+00
     123,    6.024344e+01,   -7.083885e+01,    0.000000e+00
     124,    8.255708e+01,   -1.345522e+02,    0.000000e+00
     125,    9.550100e+01,   -9.703033e+01,    0.000000e+00
     126,    3.346242e+01,   -9.951033e+00,    0.000000e+00
     127,    3.207014e+01,   -1.882290e+01,    0.000000e+00
     128,    2.992308e+01,   -2.553363e+01,    0.000000e+00
     129,    3.609340e+01,   -3.162341e+01,    0.000000e+00
     130,    7.468820e+02,   -5.076133e+01,    0.000000e+00
     131,    6.926605e+02,   -5.112318e+01,    0.000000e+00
     132,    6.352460e+02,   -5.228671e+01,    0.000000e+00
     133,    5.748855e+02,   -5.511150e+01,    0.000000e+00
     134,    5.025199e+02,   -6.550813e+01,    0.000000e+00
     135,    4.315300e+02,   -5.525835e+01,    0.000000e+00
     136,    3.708245e+02,   -5.191780e+01,    0.000000e+00
     137,    3.132323e+02,   -5.066999e+01,    0.000000e+00
     138,    2.586638e+02,   -4.834907e+01,    0.000000e+00
     139,    2.052498e+02,   -4.369256e+01,    0.000000e+00
     140,    1.614380e+02,   -3.243804e+01,    0.000000e+00
     141,    1.251021e+02,   -2.549239e+01,    0.000000e+00
     142,    9.389389e+01,   -2.017547e+01,    0.000000e+00
     143,    6.845506e+01,   -1.566547e+01,    0.000000e+00
     144,    4.845063e+01,   -1.211502e+01,    0.000000e+00
     145,    1.426736e+02,   -1.486847e+02,    0.000000e+00
     146,    1.970381e+02,   -1.479919e+02,    0.000000e+00
     147,    2.499482e+02,   -1.485797e+02,    0.000000e+00
     148,    3.023542e+02,   -1.498049e+02,    0.000000e+00
     149,    3.544987e+02,   -1.509902e+02,    0.000000e+00
     150,    4.059500e+02,   -1.525403e+02,    0.000000e+00
     151,    4.560701e+02,   -1.558077e+02,    0.000000e+00
     152,    5.001075e+02,   -1.596934e+02,    0.000000e+00
     153,    5.442588e+02,   -1.561230e+02,    0.000000e+00
     154,    5.934255e+02,   -1.529959e+02,    0.000000e+00
     155,    6.446553e+02,   -1.517379e+02,    0.000000e+00
     156,    6.964452e+02,   -1.509916e+02,    0.000000e+00
     157,    7.482599e+02,   -1.504323e+02,    0.000000e+00
     158,    7.470183e+02,   -1.007663e+02,    0.000000e+00
     159,    6.935031e+02,   -1.016046e+02,    0.000000e+00
     160,    6.398827e+02,   -1.027535e+02,    0.000000e+00
     161,    1.478981e+02,   -6.064412e+01,    0.000000e+00
     162,    8.672615e+01,   -3.917592e+01,    0.000000e+00
     163,    6.168165e+01,   -2.991769e+01,    0.000000e+00
     164,    4.355004e+01,   -2.299534e+01,    0.000000e+00
     165,    1.163863e+02,   -4.916083e+01,    0.000000e+00
     166,    4.667562e+02,   -1.122920e+02,    0.000000e+00
     167,    5.004456e+02,   -1.281646e+02,    0.000000e+00
     168,    1.383860e+02,   -1.068811e+02,    0.000000e+00
     169,    1.877485e+02,   -9.155575e+01,    0.000000e+00
     170,    2.522228e+02,   -9.767094e+01,    0.000000e+00
     171,    3.071273e+02,   -1.001273e+02,    0.000000e+00
     172,    3.617587e+02,   -1.019764e+02,    0.000000e+00
     173,    4.158936e+02,   -1.050903e+02,    0.000000e+00
     174,    1.310884e+02,   -7.974158e+01,    0.000000e+00
     175,    7.536984e+01,   -5.623018e+01,    0.000000e+00
     176,    1.050339e+02,   -7.102230e+01,    0.000000e+00
     177,    5.347366e+02,   -1.129334e+02,    0.000000e+00
     178,    5.859571e+02,   -1.056207e+02,    0.000000e+00
     179,    2.360789e+01,   -5.272643e+01,    0.000000e+00
     180,    4.028355e+01,   -7.953668e+01,    0.000000e+00
     181,    5.165162e+01,   -4.176002e+01,    0.000000e+00
     182,    3.851160e+01,   -4.968255e+01,    0.000000e+00
     183,    3.741846e+00,   -7.863542e+00,    0.000000e+00
     184,    6.336951e+00,   -4.432457e+00,    0.000000e+00
     185,    2.934506e+00,   -3.246052e+00,    0.000000e+00
     186,    9.393515e+00,   -1.526374e+01,    0.000000e+00
     187,   -5.354262e+00,   -1.075065e+01,    0.000000e+00
     188,   -3.686469e+00,   -7.758282e+00,    0.000000e+00
     189,   -2.956308e+00,   -3.270523e+00,    0.000000e+00
     190,   -6.843897e+00,   -1.468559e+01,    0.000000e+00
     191,   -1.773623e+01,   -1.114160e+01,    0.000000e+00
     192,   -1.074135e+01,   -6.807366e+00,    0.000000e+00
     193,   -7.222351e+00,   -1.909719e+01,    0.000000e+00
     194,   -1.732669e+01,   -2.032211e+01,    0.000000e+00
     195,   -3.242013e+01,   -2.611972e+01,    0.000000e+00
     196,   -3.408808e+01,   -1.332076e+01,    0.000000e+00
     197,   -6.733836e+00,   -2.358447e+01,    0.000000e+00
     198,   -6.319654e+00,   -4.047853e+01,    0.000000e+00
     199,   -3.491615e+00,   -3.770462e+01,    0.000000e+00
     200,   -5.308456e+00,   -2.745224e+01,    0.000000e+00
     201,   -6.253603e+00,   -4.500167e+00,    0.000000e+00
     202,   -1.815292e+00,   -3.162339e+01,    0.000000e+00
     203,   -4.812208e+01,   -5.402470e+01,    0.000000e+00
     204,   -2.815127e+01,   -3.747577e+01,    0.000000e+00
     205,   -1.098986e+02,   -9.723835e+01,    0.000000e+00
     206,   -7.769053e+01,   -4.771270e+01,    0.000000e+00
     207,   -7.552682e+01,   -7.686516e+01,    0.000000e+00
     208,   -6.923932e+01,   -1.172652e+02,    0.000000e+00
     209,   -1.071584e+02,   -1.433602e+02,    0.000000e+00
     210,   -1.843474e+00,   -3.621162e+01,    0.000000e+00
     211,   -7.631157e+01,   -2.270539e+01,    0.000000e+00
     212,   -1.057638e+02,   -2.908118e+01,    0.000000e+00
     213,   -1.397775e+02,   -3.402186e+01,    0.000000e+00
     214,   -1.784988e+02,   -3.795186e+01,    0.000000e+00
     215,   -2.209933e+02,   -3.951689e+01,    0.000000e+00
     216,   -2.670139e+02,   -4.116114e+01,    0.000000e+00
     217,   -3.176625e+02,   -4.696155e+01,    0.000000e+00
     218,   -3.727396e+02,   -5.008348e+01,    0.000000e+00
     219,   -4.305200e+02,   -5.185470e+01,    0.000000e+00
     220,   -4.914790e+02,   -5.537870e+01,    0.000000e+00
     221,   -5.609720e+02,   -6.575028e+01,    0.000000e+00
     222,   -6.331468e+02,   -5.503463e+01,    0.000000e+00
     223,   -6.924750e+02,   -5.194263e+01,    0.000000e+00
     224,   -7.475177e+02,   -5.070978e+01,    0.000000e+00
     225,   -7.485025e+02,   -1.506100e+02,    0.000000e+00
     226,   -6.971776e+02,   -1.515113e+02,    0.000000e+00
     227,   -6.463829e+02,   -1.529848e+02,    0.000000e+00
     228,   -5.970473e+02,   -1.563068e+02,    0.000000e+00
     229,   -5.529338e+02,   -1.597498e+02,    0.000000e+00
     230,   -5.091140e+02,   -1.556733e+02,    0.000000e+00
     231,   -4.594801e+02,   -1.523718e+02,    0.000000e+00
     232,   -4.076346e+02,   -1.506569e+02,    0.000000e+00
     233,   -3.547735e+02,   -1.484134e+02,    0.000000e+00
     234,   -2.941639e+02,   -1.420574e+02,    0.000000e+00
     235,   -2.418658e+02,   -1.540085e+02,    0.000000e+00
     236,   -1.951252e+02,   -1.557784e+02,    0.000000e+00
     237,   -1.504576e+02,   -1.535904e+02,    0.000000e+00
     238,   -7.472900e+02,   -1.010088e+02,    0.000000e+00
     239,   -5.262513e+01,   -1.712309e+01,    0.000000e+00
     240,   -1.849905e+02,   -7.534663e+01,    0.000000e+00
     241,   -2.261079e+02,   -7.791798e+01,    0.000000e+00
     242,   -6.410388e+02,   -1.055516e+02,    0.000000e+00
     243,   -6.945236e+02,   -1.024523e+02,    0.000000e+00
     244,   -5.898168e+02,   -1.129767e+02,    0.000000e+00
     245,   -5.550225e+02,   -1.282340e+02,    0.000000e+00
     246,   -2.638862e+02,   -1.126824e+02,    0.000000e+00
     247,   -5.222195e+02,   -1.125117e+02,    0.000000e+00
     248,   -4.722080e+02,   -1.051001e+02,    0.000000e+00
     249,   -4.185417e+02,   -1.018584e+02,    0.000000e+00
     250,   -3.645605e+02,   -9.881863e+01,    0.000000e+00
     251,   -3.107914e+02,   -9.224263e+01,    0.000000e+00
     252,   -2.673781e+02,   -8.031095e+01,    0.000000e+00
     253,   -1.488917e+02,   -1.097593e+02,    0.000000e+00
     254,   -1.095948e+02,   -6.068364e+01,    0.000000e+00
     255,   -1.456831e+02,   -6.987447e+01,    0.000000e+00
     256,   -1.895741e+02,   -1.148530e+02,    0.000000e+00
     257,   -2.299769e+02,   -1.154782e+02,    0.000000e+00
     258,   -3.374103e+00,   -3.015554e+01,    0.000000e+00
     259,   -5.206507e+01,   -3.537582e+01,    0.000000e+00
     260,   -1.455097e+01,   -2.778161e+01,    0.000000e+00
     261,   -9.643603e+00,   -3.345752e+01,    0.000000e+00
     262,   -4.643269e+00,   -3.388647e+01,    0.000000e+00
     263,   -2.072413e+00,   -3.388952e+01,    0.000000e+00
     264,   -4.088819e+01,   -7.557710e+01,    0.000000e+00
     265,   -2.681540e+01,   -1.118129e+02,    0.000000e+00
     266,   -2.152105e+01,   -4.746424e+01,    0.000000e+00
     267,   -1.248973e+01,   -5.660931e+01,    0.000000e+00
     268,   -2.227572e+00,   -5.738580e+00,    0.000000e+00
**
********************************** E L E M E N T S ****************************
*ELEMENT, TYPE=S4R, ELSET=EB1
       1,       6,       5,     188,     187
       2,       3,       1,      16,     189
       3,       6,     187,     190,       7
       4,     187,     192,     191,     190
       5,       7,     190,     193,       8
       6,     190,     191,     194,     193
       7,     191,     196,     195,     194
       8,       8,     193,     197,       9
       9,       9,     197,     200,      10
      10,      12,     202,     263,      13
      11,      57,      60,     265,      83
      12,      60,      59,     267,     265
      13,     205,     207,     206,     254
      14,      82,      83,     208,     209
      15,     209,     208,     207,     205
      16,     195,     196,     239,     259
      17,      59,      58,     198,     267
      18,      58,       2,     199,     198
      19,       2,      14,     210,     199
      20,      13,     263,     210,      14
      21,      22,      23,     212,     211
      22,      23,      24,     213,     212
      23,      24,      25,     214,     213
      24,      25,      26,     215,     214
      25,      26,      27,     216,     215
      26,      27,      28,     217,     216
      27,      28,      29,     218,     217
      28,      29,      30,     219,     218
      29,      30,      31,     220,     219
      30,      31,      32,     221,     220
      31,      32,      33,     222,     221
      32,      33,      34,     223,     222
      33,      34,      35,     224,     223
      34,      35,      15,      62,     224
      35,      61,      69,     225,      64
      36,      69,      70,     226,     225
      37,      70,      71,     227,     226
      38,      71,      72,     228,     227
      39,      72,      73,     229,     228
      40,      73,      74,     230,     229
      41,      74,      75,     231,     230
      42,      75,      76,     232,     231
      43,      76,      77,     233,     232
      44,      77,      78,     234,     233
      45,      78,      79,     235,     234
      46,      79,      80,     236,     235
      47,      80,      81,     237,     236
      48,      81,      82,     209,     237
      49,      62,      63,     238,     224
      50,      63,      64,     225,     238
      51,      22,     211,     239,      21
      52,     212,     213,     255,     254
      53,     213,     214,     240,     255
      54,     214,     215,     241,     240
      55,     215,     216,     252,     241
      56,     217,     218,     250,     251
      57,     218,     219,     249,     250
      58,     219,     220,     248,     249
      59,     220,     221,     247,     248
      60,     222,     223,     243,     242
      61,     223,     224,     238,     243
      62,     221,     222,     242,     244
      63,     247,     221,     244,     245
      64,     216,     217,     251,     252
      65,     225,     226,     243,     238
      66,     226,     227,     242,     243
      67,     227,     228,     244,     242
      68,     228,     229,     245,     244
      69,     229,     230,     247,     245
      70,     230,     231,     248,     247
      71,     231,     232,     249,     248
      72,     232,     233,     250,     249
      73,     233,     234,     251,     250
      74,     235,     236,     256,     257
      75,     236,     237,     253,     256
      76,     234,     235,     257,     246
      77,     251,     234,     246,     252
      78,     237,     209,     205,     253
      79,     240,     241,     257,     256
      80,     241,     252,     246,     257
      81,     202,      12,      11,     258
      82,     258,      11,      10,     200
      83,     254,     255,     253,     205
      84,     259,     239,     211,     206
      85,     259,     206,     207,     203
      86,     259,     203,     204,     195
      87,     211,     212,     254,     206
      88,     255,     240,     256,     253
      89,     197,     193,     194,     260
      90,     260,     194,     195,     204
      91,     261,     198,     199,     262
      92,     262,     199,     210,     263
      93,     258,     262,     263,     202
      94,     239,     196,      20,      21
      95,     207,     208,     264,     203
      96,     208,      83,     265,     264
      97,     264,     265,     267,     266
      98,     203,     264,     266,     204
      99,     204,     266,     261,     260
     100,     266,     267,     198,     261
     101,     196,     191,      19,      20
     102,     191,     192,      18,      19
     103,      18,     192,     201,      17
     104,     192,     187,     188,     201
     105,      17,     201,     189,      16
     106,     188,       5,       4,     268
     107,     268,       4,       3,     189
     108,     201,     188,     268,     189
     109,     262,     258,     200,     261
     110,     200,     197,     260,     261
*ELEMENT, TYPE=S4R, ELSET=EB2
     111,       6,       7,     100,      99
     112,       7,       8,     101,     100
     113,       8,       9,     102,     101
     114,       9,      10,     103,     102
     115,      10,      11,     104,     103
     116,      11,      12,     105,     104
     117,      12,      13,     106,     105
     118,      13,      14,     107,     106
     119,      14,       2,     108,     107
     120,       2,      58,     109,     108
     121,      58,      59,     110,     109
     122,      59,      60,     111,     110
     123,      60,      57,      84,     111
     124,       1,       3,     185,      56
     125,       3,       4,     113,     185
     126,     102,     103,     115,     114
     127,     103,     104,     116,     115
     128,     104,     105,     117,     116
     129,     106,     107,     117,     105
     130,      54,     112,     118,      53
     131,     114,     115,     120,     119
     132,     115,     116,     121,     120
     133,     116,     117,     122,     121
     134,     117,     107,     108,     122
     135,     111,      84,      85,     124
     136,      53,     118,     126,      52
     137,     118,     119,     127,     126
     138,     119,     120,     128,     127
     139,     120,     121,     129,     128
     140,      36,      37,     130,      68
     141,      37,      38,     131,     130
     142,      38,      39,     132,     131
     143,      39,      40,     133,     132
     144,      40,      41,     134,     133
     145,      41,      42,     135,     134
     146,      42,      43,     136,     135
     147,      43,      44,     137,     136
     148,      44,      45,     138,     137
     149,      45,      46,     139,     138
     150,      46,      47,     140,     139
     151,      47,      48,     141,     140
     152,      48,      49,     142,     141
     153,      49,      50,     143,     142
     154,      50,      51,     144,     143
     155,      51,      52,     126,     144
     156,      85,      86,     145,     124
     157,      86,      87,     146,     145
     158,      87,      88,     147,     146
     159,      88,      89,     148,     147
     160,      89,      90,     149,     148
     161,      90,      91,     150,     149
     162,      91,      92,     151,     150
     163,      92,      93,     152,     151
     164,      93,      94,     153,     152
     165,      94,      95,     154,     153
     166,      95,      96,     155,     154
     167,      96,      97,     156,     155
     168,      97,      98,     157,     156
     169,      98,      65,      66,     157
     170,      66,      67,     158,     157
     171,      67,      68,     130,     158
     172,     130,     131,     159,     158
     173,     131,     132,     160,     159
     174,     132,     133,     178,     160
     175,     133,     134,     177,     178
     176,     135,     136,     172,     173
     177,     136,     137,     171,     172
     178,     137,     138,     170,     171
     179,     138,     139,     169,     170
     180,     139,     140,     161,     169
     181,     142,     143,     163,     162
     182,     143,     144,     164,     163
     183,     141,     142,     162,     165
     184,     134,     135,     173,     166
     185,     177,     134,     166,     167
     186,     124,     145,     168,     125
     187,     145,     146,     169,     168
     188,     146,     147,     170,     169
     189,     147,     148,     171,     170
     190,     148,     149,     172,     171
     191,     149,     150,     173,     172
     192,     150,     151,     166,     173
     193,     169,     161,     174,     168
     194,     165,     162,     175,     176
     195,     151,     152,     167,     166
     196,     123,     125,     176,     175
     197,     125,     168,     174,     176
     198,     152,     153,     177,     167
     199,     153,     154,     178,     177
     200,     154,     155,     160,     178
     201,     156,     157,     158,     159
     202,     159,     160,     155,     156
     203,     108,     109,     179,     122
     204,     179,     109,     110,     180
     205,     124,     125,     123,     180
     206,     124,     180,     110,     111
     207,     161,     140,     141,     165
     208,     165,     176,     174,     161
     209,     163,     181,     175,     162
     210,     181,     182,     123,     175
     211,     182,     179,     180,     123
     212,     181,     163,     164,     129
     213,     182,     181,     129,     121
     214,     179,     182,     121,     122
     215,     127,     128,     129,     164
     216,     164,     144,     126,     127
     217,     113,       4,       5,     183
     218,     183,       5,       6,      99
     219,     112,      54,      55,     184
     220,      99,     112,     184,     183
     221,     184,      55,      56,     185
     222,     183,     184,     185,     113
     223,     186,      99,     100,     101
     224,     186,     101,     102,     114
     225,     186,     114,     119,     118
     226,     186,     118,     112,      99
**
********************************** S I D E S E T S **********************************
*ELSET, ELSET=SS1_E1
      49,      50,     170,     171
*ELSET, ELSET=SS1_E2
      34,     169
*ELSET, ELSET=SS1_E4
      35,     140
*SURFACE, NAME=SS1
SS1_E1, E1
SS1_E2, E2
SS1_E4, E4
*ELSET, ELSET=SS2_E1
      14,      21,      22,      23,      24,      25,      26,      27,      28,      29,
      30,      31,      32,      33,      34,      35,      36,      37,      38,      39,
      40,      41,      42,      43,      44,      45,      46,      47,      48,     140,
     141,     142,     143,     144,     145,     146,     147,     148,     149,     150,
     151,     152,     153,     154,     155,     156,     157,     158,     159,     160,
     161,     162,     163,     164,     165,     166,     167,     168,     169
*ELSET, ELSET=SS2_E2
       2,     123,     135,     219,     221
*ELSET, ELSET=SS2_E3
      94,     101,     102
*ELSET, ELSET=SS2_E4
      11,      51,     103,     105,     124,     130,     136
*SURFACE, NAME=SS2
SS2_E1, E1
SS2_E2, E2
SS2_E3, E3
SS2_E4, E4
*ELSET, ELSET=SS7_E1
       1,       2,      19,     111,     112,     113,     114,     115,     116,     117,
     118,     119,     124,     125
*ELSET, ELSET=SS7_E2
      81,      82,     106,     107,     217,     218
*ELSET, ELSET=SS7_E4
       3,       5,       8,       9,      10,      20
*SURFACE, NAME=SS7
SS7_E1, E1
SS7_E2, E2
SS7_E4, E4
*ELSET, ELSET=SS8_E1
      11,      12,      17,      18,     120,     121,     122,     123
*SURFACE, NAME=SS8
SS8_E1, E1
**
********************************** P R O P E R T I E S ************************
*SHELL SECTION, ELSET=EB1, SECTION INTEGRATION=SIMPSON, MATERIAL=Default-Steel
1.000000e+00
*SHELL SECTION, ELSET=EB2, SECTION INTEGRATION=SIMPSON, MATERIAL=Default-Steel
1.000000e+00
**
*END PART
**
**
**
********************************** E N D   P A R T S **********************************
**
**
********************************** A S S E M B L Y ************************************
**
*ASSEMBLY, NAME=ASSEMBLY1
**
*INSTANCE, NAME=Part-Default_1, PART=Part-Default
*END INSTANCE
**
*END ASSEMBLY
**
**
**
*MATERIAL, NAME = Default-Steel
*ELASTIC, TYPE=ISOTROPIC
2.068000e+05, 2.900000e-01
*DENSITY
7.000000e-06
*CONDUCTIVITY,TYPE=ISO
4.500000e-02
*SPECIFIC HEAT
5.000000e+02
**
**
************************************** H I S T O R Y *************************************
**
*PREPRINT
**
**************************************** S T E P 1 ***************************************
*STEP,INC=100,NAME=Default Set
**
*STATIC
1, 1, 1e-05, 1
**
**
**
**
*END STEP
