*HEADING
cubit(sers/brittanyerickson/Desktop/test_mesh/BP9_2D_60d_v1.inp): 05/19/2026: 16
version: 2024.8
**
********************************** P A R T S **********************************
*PART, NAME=Part-Default
**
********************************** N O D E S **********************************
*NODE, NSET=ALLNODES
       1,    0.000000e+00,    0.000000e+00,    0.000000e+00
       2,    2.000000e+01,   -3.464102e+01,    0.000000e+00
       3,    6.666667e+00,   -1.154701e+01,    0.000000e+00
       4,    1.333333e+01,   -2.309401e+01,    0.000000e+00
       5,   -6.000000e+01,    0.000000e+00,    0.000000e+00
       6,   -1.200000e+01,    0.000000e+00,    0.000000e+00
       7,   -1.745154e+01,    0.000000e+00,    0.000000e+00
       8,   -2.065721e+01,    0.000000e+00,    0.000000e+00
       9,   -2.305738e+01,    0.000000e+00,    0.000000e+00
      10,   -2.532624e+01,    0.000000e+00,    0.000000e+00
      11,   -2.802940e+01,    0.000000e+00,    0.000000e+00
      12,   -3.210851e+01,    0.000000e+00,    0.000000e+00
      13,   -4.000000e+01,    0.000000e+00,    0.000000e+00
      14,    6.000000e+01,    0.000000e+00,    0.000000e+00
      15,    4.000000e+01,    0.000000e+00,    0.000000e+00
      16,    3.210851e+01,    0.000000e+00,    0.000000e+00
      17,    2.802940e+01,    0.000000e+00,    0.000000e+00
      18,    2.532624e+01,    0.000000e+00,    0.000000e+00
      19,    2.305738e+01,    0.000000e+00,    0.000000e+00
      20,    2.065721e+01,    0.000000e+00,    0.000000e+00
      21,    1.745154e+01,    0.000000e+00,    0.000000e+00
      22,    1.200000e+01,    0.000000e+00,    0.000000e+00
      23,    3.464102e+01,   -6.000000e+01,    0.000000e+00
      24,    2.366025e+01,   -4.098076e+01,    0.000000e+00
      25,    2.732051e+01,   -4.732051e+01,    0.000000e+00
      26,    3.098076e+01,   -5.366025e+01,    0.000000e+00
      27,   -6.000000e+01,   -6.000000e+01,    0.000000e+00
      28,   -6.000000e+01,   -2.000000e+01,    0.000000e+00
      29,   -6.000000e+01,   -4.000000e+01,    0.000000e+00
      30,    6.000000e+01,   -6.000000e+01,    0.000000e+00
      31,    6.000000e+01,   -4.000000e+01,    0.000000e+00
      32,    6.000000e+01,   -2.000000e+01,    0.000000e+00
      33,   -4.107180e+01,   -6.000000e+01,    0.000000e+00
      34,   -2.214359e+01,   -6.000000e+01,    0.000000e+00
      35,   -3.215390e+00,   -6.000000e+01,    0.000000e+00
      36,    1.571281e+01,   -6.000000e+01,    0.000000e+00
      37,    2.243986e+01,   -4.306834e+00,    0.000000e+00
      38,    2.016925e+01,   -2.948108e+00,    0.000000e+00
      39,    1.746602e+01,   -4.431060e+00,    0.000000e+00
      40,    1.263061e+01,   -7.174099e+00,    0.000000e+00
      41,    2.565187e+01,   -5.923316e+00,    0.000000e+00
      42,    2.435253e+01,   -1.289712e+01,    0.000000e+00
      43,    2.005824e+01,   -8.525458e+00,    0.000000e+00
      44,    1.653769e+01,   -1.445702e+01,    0.000000e+00
      45,    2.814114e+01,   -2.927426e+01,    0.000000e+00
      46,    2.224833e+01,   -2.198712e+01,    0.000000e+00
      47,    3.686586e+01,   -1.060302e+01,    0.000000e+00
      48,    3.462394e+01,   -3.619235e+01,    0.000000e+00
      49,    4.242809e+01,   -4.444891e+01,    0.000000e+00
      50,    4.667209e+01,   -2.978697e+01,    0.000000e+00
      51,    3.021985e+01,   -7.911335e+00,    0.000000e+00
      52,    4.676496e+01,   -1.396359e+01,    0.000000e+00
      53,    3.018888e+01,   -1.762634e+01,    0.000000e+00
      54,    3.748527e+01,   -2.317665e+01,    0.000000e+00
      55,   -2.274052e+01,   -7.914589e+00,    0.000000e+00
      56,   -2.671889e+01,   -7.502541e+00,    0.000000e+00
      57,   -3.092503e+01,   -7.737991e+00,    0.000000e+00
      58,   -3.676079e+01,   -8.808400e+00,    0.000000e+00
      59,   -4.561947e+01,   -9.622296e+00,    0.000000e+00
      60,   -1.827569e+01,   -8.699496e+00,    0.000000e+00
      61,   -2.343283e+01,   -1.517640e+01,    0.000000e+00
      62,   -2.727519e+01,   -1.267648e+01,    0.000000e+00
      63,   -4.113664e+01,   -1.998279e+01,    0.000000e+00
      64,   -4.114252e+00,   -1.045629e+01,    0.000000e+00
      65,    2.257340e+01,   -5.434133e+01,    0.000000e+00
      66,    2.110828e+01,   -4.947177e+01,    0.000000e+00
      67,    6.622247e+00,   -3.434046e+01,    0.000000e+00
      68,    1.270163e+00,   -2.197224e+01,    0.000000e+00
      69,   -3.812616e+01,   -3.707005e+01,    0.000000e+00
      70,   -2.133313e+01,   -4.333626e+01,    0.000000e+00
      71,   -5.020885e+00,   -4.593669e+01,    0.000000e+00
      72,    1.343093e+01,   -4.675348e+01,    0.000000e+00
      73,   -7.208633e+00,   -3.248008e+01,    0.000000e+00
      74,   -1.752126e+01,   -1.784922e+01,    0.000000e+00
      75,   -2.739738e+01,   -2.303316e+01,    0.000000e+00
      76,   -1.889005e+01,   -2.906091e+01,    0.000000e+00
      77,   -1.241723e+01,   -9.543631e+00,    0.000000e+00
      78,   -3.167384e+01,   -1.535049e+01,    0.000000e+00
      79,   -9.318416e+00,   -2.030191e+01,    0.000000e+00
**
********************************** E L E M E N T S ****************************
*ELEMENT, TYPE=S4R, ELSET=EB1
       1,       9,      10,      56,      55
       2,      10,      11,      57,      56
       3,      11,      12,      58,      57
       4,      12,      13,      59,      58
       5,      13,       5,      28,      59
       6,       9,      55,      60,       8
       7,      55,      61,      74,      60
       8,      55,      56,      62,      61
       9,      56,      57,      78,      62
      10,      57,      58,      63,      78
      11,      58,      59,      28,      63
      12,       1,       6,      64,       3
      13,      23,      26,      65,      36
      14,      26,      25,      66,      65
      15,      25,      24,      72,      66
      16,      24,       2,      67,      72
      17,       2,       4,      68,      67
      18,       4,       3,      64,      68
      19,      27,      33,      69,      29
      20,      33,      34,      70,      69
      21,      34,      35,      71,      70
      22,      35,      36,      72,      71
      23,      36,      65,      66,      72
      24,      72,      67,      73,      71
      25,      69,      70,      76,      75
      26,      70,      71,      73,      76
      27,       8,      60,      77,       7
      28,       6,       7,      77,      64
      29,      74,      61,      75,      76
      30,      61,      62,      78,      75
      31,      64,      77,      79,      68
      32,      77,      60,      74,      79
      33,      79,      74,      76,      73
      34,      68,      79,      73,      67
      35,      78,      63,      69,      75
      36,      69,      63,      28,      29
*ELEMENT, TYPE=S4R, ELSET=EB2
      37,      19,      20,      38,      37
      38,      20,      21,      39,      38
      39,      21,      22,      40,      39
      40,      22,       1,       3,      40
      41,      19,      37,      41,      18
      42,      37,      43,      42,      41
      43,      38,      39,      43,      37
      44,      39,      40,      44,      43
      45,      40,       3,       4,      44
      46,      44,       4,       2,      46
      47,       2,      24,      45,      46
      48,      24,      25,      48,      45
      49,      25,      26,      49,      48
      50,      26,      23,      30,      49
      51,      30,      31,      50,      49
      52,      44,      46,      42,      43
      53,      47,      52,      15,      16
      54,      47,      16,      17,      51
      55,      17,      18,      41,      51
      56,      50,      31,      32,      52
      57,      32,      14,      15,      52
      58,      53,      51,      41,      42
      59,      53,      42,      46,      45
      60,      52,      47,      54,      50
      61,      47,      51,      53,      54
      62,      54,      53,      45,      48
      63,      50,      54,      48,      49
**
********************************** S I D E S E T S **********************************
*ELSET, ELSET=SS1_E1
      51,      57
*ELSET, ELSET=SS1_E2
       5,      56
*ELSET, ELSET=SS1_E3
      36
*ELSET, ELSET=SS1_E4
      19
*SURFACE, NAME=SS1
SS1_E1, E1
SS1_E2, E2
SS1_E3, E3
SS1_E4, E4
*ELSET, ELSET=SS2_E1
       1,       2,       3,       4,       5,      12,      19,      20,      21,      22,
      28,      37,      38,      39,      40,      55
*ELSET, ELSET=SS2_E2
      50,      54,      57
*ELSET, ELSET=SS2_E3
      53
*ELSET, ELSET=SS2_E4
       6,      13,      27,      41
*SURFACE, NAME=SS2
SS2_E1, E1
SS2_E2, E2
SS2_E3, E3
SS2_E4, E4
*ELSET, ELSET=SS7_E1
      17,      18
*ELSET, ELSET=SS7_E2
      40,      45,      46
*ELSET, ELSET=SS7_E4
      12
*SURFACE, NAME=SS7
SS7_E1, E1
SS7_E2, E2
SS7_E4, E4
*ELSET, ELSET=SS8_E1
      13,      14,      15,      16,      47,      48,      49,      50
*SURFACE, NAME=SS8
SS8_E1, E1
**
********************************** P R O P E R T I E S ************************
*SHELL SECTION, ELSET=EB1, SECTION INTEGRATION=SIMPSON, MATERIAL=Default-Steel
1.000000e+00
*SHELL SECTION, ELSET=EB2, SECTION INTEGRATION=SIMPSON, MATERIAL=Default-Steel
1.000000e+00
**
*END PART
**
**
**
********************************** E N D   P A R T S **********************************
**
**
********************************** A S S E M B L Y ************************************
**
*ASSEMBLY, NAME=ASSEMBLY1
**
*INSTANCE, NAME=Part-Default_1, PART=Part-Default
*END INSTANCE
**
*END ASSEMBLY
**
**
**
*MATERIAL, NAME = Default-Steel
*ELASTIC, TYPE=ISOTROPIC
2.068000e+05, 2.900000e-01
*DENSITY
7.000000e-06
*CONDUCTIVITY,TYPE=ISO
4.500000e-02
*SPECIFIC HEAT
5.000000e+02
**
**
************************************** H I S T O R Y *************************************
**
*PREPRINT
**
**************************************** S T E P 1 ***************************************
*STEP,INC=100,NAME=Default Set
**
*STATIC
1, 1, 1e-05, 1
**
**
**
**
*END STEP
