*HEADING
cubit(brittanyerickson/Desktop/test_mesh/BP9_2D__60degree_3.inp): 05/29/2026: 15
version: 2024.8
**
********************************** P A R T S **********************************
*PART, NAME=Part-Default
**
********************************** N O D E S **********************************
*NODE, NSET=ALLNODES
       1,    0.000000e+00,    0.000000e+00,    0.000000e+00
       2,   -4.000000e+01,    0.000000e+00,    0.000000e+00
       3,   -5.000000e+00,    0.000000e+00,    0.000000e+00
       4,   -8.867455e+00,    0.000000e+00,    0.000000e+00
       5,   -1.223527e+01,    0.000000e+00,    0.000000e+00
       6,   -1.553329e+01,    0.000000e+00,    0.000000e+00
       7,   -1.916820e+01,    0.000000e+00,    0.000000e+00
       8,   -2.368065e+01,    0.000000e+00,    0.000000e+00
       9,   -3.000000e+01,    0.000000e+00,    0.000000e+00
      10,    4.000000e+01,    0.000000e+00,    0.000000e+00
      11,    3.000000e+01,    0.000000e+00,    0.000000e+00
      12,    2.368065e+01,    0.000000e+00,    0.000000e+00
      13,    1.916820e+01,    0.000000e+00,    0.000000e+00
      14,    1.553329e+01,    0.000000e+00,    0.000000e+00
      15,    1.223527e+01,    0.000000e+00,    0.000000e+00
      16,    8.867455e+00,    0.000000e+00,    0.000000e+00
      17,    5.000000e+00,    0.000000e+00,    0.000000e+00
      18,    4.000000e+01,   -6.928000e+01,    0.000000e+00
      19,    2.000000e+01,   -3.464000e+01,    0.000000e+00
      20,    3.499989e+01,   -6.061981e+01,    0.000000e+00
      21,    3.184022e+01,   -5.514727e+01,    0.000000e+00
      22,    2.958404e+01,   -5.123955e+01,    0.000000e+00
      23,    2.776663e+01,   -4.809180e+01,    0.000000e+00
      24,    2.611766e+01,   -4.523578e+01,    0.000000e+00
      25,    2.443378e+01,   -4.231931e+01,    0.000000e+00
      26,    2.250006e+01,   -3.897010e+01,    0.000000e+00
      27,    2.500000e+00,   -4.330000e+00,    0.000000e+00
      28,    5.000000e+00,   -8.660000e+00,    0.000000e+00
      29,    7.500000e+00,   -1.299000e+01,    0.000000e+00
      30,    1.000000e+01,   -1.732000e+01,    0.000000e+00
      31,    1.250000e+01,   -2.165000e+01,    0.000000e+00
      32,    1.500000e+01,   -2.598000e+01,    0.000000e+00
      33,    1.750000e+01,   -3.031000e+01,    0.000000e+00
      34,    8.000000e+01,   -6.928000e+01,    0.000000e+00
      35,    7.500000e+01,   -6.062000e+01,    0.000000e+00
      36,    7.000000e+01,   -5.196000e+01,    0.000000e+00
      37,    6.500000e+01,   -4.330000e+01,    0.000000e+00
      38,    6.000000e+01,   -3.464000e+01,    0.000000e+00
      39,    5.500000e+01,   -2.598000e+01,    0.000000e+00
      40,    5.000000e+01,   -1.732000e+01,    0.000000e+00
      41,    4.500000e+01,   -8.660000e+00,    0.000000e+00
      42,    0.000000e+00,   -6.928000e+01,    0.000000e+00
      43,   -3.500000e+01,   -8.660000e+00,    0.000000e+00
      44,   -3.000000e+01,   -1.732000e+01,    0.000000e+00
      45,   -2.500000e+01,   -2.598000e+01,    0.000000e+00
      46,   -2.000000e+01,   -3.464000e+01,    0.000000e+00
      47,   -1.500000e+01,   -4.330000e+01,    0.000000e+00
      48,   -1.000000e+01,   -5.196000e+01,    0.000000e+00
      49,   -5.000000e+00,   -6.062000e+01,    0.000000e+00
      50,    5.000000e+01,   -6.928000e+01,    0.000000e+00
      51,    6.000000e+01,   -6.928000e+01,    0.000000e+00
      52,    7.000000e+01,   -6.928000e+01,    0.000000e+00
      53,    1.000000e+01,   -6.928000e+01,    0.000000e+00
      54,    2.000000e+01,   -6.928000e+01,    0.000000e+00
      55,    3.000000e+01,   -6.928000e+01,    0.000000e+00
      56,    6.671092e+00,   -3.764355e+00,    0.000000e+00
      57,    1.160331e+01,   -1.106579e+01,    0.000000e+00
      58,    1.373730e+01,   -1.498771e+01,    0.000000e+00
      59,    1.653851e+01,   -1.844386e+01,    0.000000e+00
      60,    1.968111e+01,   -2.222685e+01,    0.000000e+00
      61,    2.284561e+01,   -2.649647e+01,    0.000000e+00
      62,    2.553497e+01,   -3.123206e+01,    0.000000e+00
      63,    2.748850e+01,   -3.607531e+01,    0.000000e+00
      64,    2.860142e+01,   -4.035277e+01,    0.000000e+00
      65,    2.881743e+01,   -4.359391e+01,    0.000000e+00
      66,    3.173321e+01,   -4.519319e+01,    0.000000e+00
      67,    3.623256e+01,   -4.811716e+01,    0.000000e+00
      68,    4.123672e+01,   -5.306884e+01,    0.000000e+00
      69,    4.630760e+01,   -6.030733e+01,    0.000000e+00
      70,    3.491509e+01,   -6.951910e+00,    0.000000e+00
      71,    2.317704e+01,   -5.200630e+00,    0.000000e+00
      72,    1.836693e+01,   -4.314471e+00,    0.000000e+00
      73,    1.467120e+01,   -3.100822e+00,    0.000000e+00
      74,    1.232489e+01,   -2.035302e+00,    0.000000e+00
      75,    1.006820e+01,   -3.005085e+00,    0.000000e+00
      76,    6.827159e+01,   -6.286446e+01,    0.000000e+00
      77,    4.471638e+01,   -4.086078e+01,    0.000000e+00
      78,    4.343641e+01,   -3.110512e+01,    0.000000e+00
      79,    4.008790e+01,   -2.278906e+01,    0.000000e+00
      80,    5.982365e+01,   -5.869787e+01,    0.000000e+00
      81,    2.168423e+01,   -1.029060e+01,    0.000000e+00
      82,    1.608192e+01,   -8.756949e+00,    0.000000e+00
      83,    1.665268e+01,   -1.292137e+01,    0.000000e+00
      84,    2.401271e+01,   -1.788841e+01,    0.000000e+00
      85,    1.981485e+01,   -1.491903e+01,    0.000000e+00
      86,    3.400103e+01,   -4.008859e+01,    0.000000e+00
      87,    3.405806e+01,   -3.387242e+01,    0.000000e+00
      88,    5.273427e+01,   -4.883280e+01,    0.000000e+00
      89,    8.873365e+00,   -7.340218e+00,    0.000000e+00
      90,    1.232279e+01,   -5.616509e+00,    0.000000e+00
      91,    2.743574e+01,   -1.230659e+01,    0.000000e+00
      92,    3.526294e+01,   -1.481134e+01,    0.000000e+00
      93,    2.903737e+01,   -6.168941e+00,    0.000000e+00
      94,    3.195916e+01,   -2.764656e+01,    0.000000e+00
      95,    2.842213e+01,   -2.203445e+01,    0.000000e+00
      96,    2.710691e+01,   -6.202234e+01,    0.000000e+00
      97,    2.575729e+01,   -5.626226e+01,    0.000000e+00
      98,    2.521060e+01,   -5.181253e+01,    0.000000e+00
      99,    2.539696e+01,   -4.901923e+01,    0.000000e+00
     100,    2.321364e+01,   -4.715337e+01,    0.000000e+00
     101,    2.049226e+01,   -4.433155e+01,    0.000000e+00
     102,    1.752462e+01,   -4.066595e+01,    0.000000e+00
     103,    1.430949e+01,   -3.601512e+01,    0.000000e+00
     104,    1.147414e+01,   -3.131777e+01,    0.000000e+00
     105,    8.950845e+00,   -2.654146e+01,    0.000000e+00
     106,    6.668546e+00,   -2.184745e+01,    0.000000e+00
     107,    4.657816e+00,   -1.744577e+01,    0.000000e+00
     108,    2.511824e+00,   -1.306364e+01,    0.000000e+00
     109,    9.518041e-02,   -8.631871e+00,    0.000000e+00
     110,   -2.373177e+00,   -4.371985e+00,    0.000000e+00
     111,   -6.897702e+00,   -4.472136e+00,    0.000000e+00
     112,   -1.113377e+01,   -4.586881e+00,    0.000000e+00
     113,   -1.530863e+01,   -4.320044e+00,    0.000000e+00
     114,   -1.870259e+01,   -3.282661e+00,    0.000000e+00
     115,   -2.182431e+01,   -5.516689e+00,    0.000000e+00
     116,   -2.744010e+01,   -7.376814e+00,    0.000000e+00
     117,   -2.243026e+01,   -1.462866e+01,    0.000000e+00
     118,   -1.463303e+01,   -2.431980e+01,    0.000000e+00
     119,   -1.057888e+01,   -3.366340e+01,    0.000000e+00
     120,   -1.077363e+00,   -4.967347e+01,    0.000000e+00
     121,    7.037829e+00,   -5.898583e+01,    0.000000e+00
     122,    1.866446e+01,   -6.179377e+01,    0.000000e+00
     123,   -4.646509e+00,   -9.154526e+00,    0.000000e+00
     124,   -9.583926e+00,   -9.955308e+00,    0.000000e+00
     125,   -1.625184e+01,   -1.039993e+01,    0.000000e+00
     126,    1.933460e+01,   -5.528627e+01,    0.000000e+00
     127,    2.103894e+01,   -5.045267e+01,    0.000000e+00
     128,    1.663428e+01,   -4.753185e+01,    0.000000e+00
     129,    1.234262e+01,   -4.322883e+01,    0.000000e+00
     130,    8.467694e+00,   -3.807695e+01,    0.000000e+00
     131,    5.162350e+00,   -3.253298e+01,    0.000000e+00
     132,    2.639685e+00,   -2.719438e+01,    0.000000e+00
     133,    9.207184e-01,   -2.199970e+01,    0.000000e+00
     134,   -1.286751e-01,   -1.766605e+01,    0.000000e+00
     135,   -2.102605e+00,   -1.369721e+01,    0.000000e+00
     136,   -6.375603e+00,   -1.494870e+01,    0.000000e+00
     137,   -1.056279e+01,   -1.824472e+01,    0.000000e+00
     138,   -4.692504e+00,   -2.161056e+01,    0.000000e+00
     139,   -4.393697e+00,   -2.716565e+01,    0.000000e+00
     140,   -6.248935e+00,   -4.168202e+01,    0.000000e+00
     141,    1.234400e+01,   -5.206428e+01,    0.000000e+00
     142,    6.415797e+00,   -4.648074e+01,    0.000000e+00
     143,    1.680806e+00,   -4.000025e+01,    0.000000e+00
     144,   -1.844741e+00,   -3.366761e+01,    0.000000e+00
     145,   -3.732261e+00,   -1.807510e+01,    0.000000e+00
**
********************************** E L E M E N T S ****************************
*ELEMENT, TYPE=S4R, ELSET=EB1
       1,      18,      20,      96,      55
       2,      20,      21,      97,      96
       3,      21,      22,      98,      97
       4,      22,      23,      99,      98
       5,      23,      24,     100,      99
       6,      24,      25,     101,     100
       7,      25,      26,     102,     101
       8,      26,      19,     103,     102
       9,      19,      33,     104,     103
      10,      33,      32,     105,     104
      11,      32,      31,     106,     105
      12,      31,      30,     107,     106
      13,      30,      29,     108,     107
      14,      29,      28,     109,     108
      15,      28,      27,     110,     109
      16,      27,       1,       3,     110
      17,       3,       4,     111,     110
      18,       4,       5,     112,     111
      19,       5,       6,     113,     112
      20,       6,       7,     114,     113
      21,       7,       8,     115,     114
      22,       8,       9,     116,     115
      23,       9,       2,      43,     116
      24,      43,      44,     117,     116
      25,      44,      45,     118,     117
      26,      45,      46,     119,     118
      27,      46,      47,     140,     119
      28,      47,      48,     120,     140
      29,      48,      49,     121,     120
      30,      49,      42,      53,     121
      31,      53,      54,     122,     121
      32,      54,      55,      96,     122
      33,     110,     111,     123,     109
      34,     111,     112,     124,     123
      35,     112,     113,     125,     124
      36,     114,     115,     125,     113
      37,     115,     116,     117,     125
      38,      96,      97,     126,     122
      39,      97,      98,     127,     126
      40,     101,     102,     129,     128
      41,     102,     103,     130,     129
      42,     103,     104,     131,     130
      43,     104,     105,     132,     131
      44,     105,     106,     133,     132
      45,     106,     107,     134,     133
      46,     107,     108,     135,     134
      47,     109,     123,     135,     108
      48,     123,     124,     136,     135
      49,     124,     125,     137,     136
      50,     125,     117,     118,     137
      51,     121,     122,     126,     141
      52,     120,     121,     141,     142
      53,     140,     120,     142,     143
      54,     126,     127,     128,     141
      55,     128,     129,     142,     141
      56,     129,     130,     143,     142
      57,     143,     130,     131,     144
      58,     131,     132,     139,     144
      59,     132,     133,     138,     139
      60,     133,     134,     145,     138
      61,     135,     136,     145,     134
      62,     137,     138,     145,     136
      63,     127,      98,      99,     100
      64,     127,     100,     101,     128
      65,     143,     144,     119,     140
      66,     144,     139,     118,     119
      67,     139,     138,     137,     118
*ELEMENT, TYPE=S4R, ELSET=EB2
      68,       1,      27,      56,      17
      69,      27,      28,      89,      56
      70,      28,      29,      57,      89
      71,      29,      30,      58,      57
      72,      30,      31,      59,      58
      73,      31,      32,      60,      59
      74,      32,      33,      61,      60
      75,      33,      19,      62,      61
      76,      19,      26,      63,      62
      77,      26,      25,      64,      63
      78,      25,      24,      65,      64
      79,      24,      23,      66,      65
      80,      23,      22,      67,      66
      81,      22,      21,      68,      67
      82,      21,      20,      69,      68
      83,      20,      18,      50,      69
      84,      11,      12,      71,      93
      85,      12,      13,      72,      71
      86,      13,      14,      73,      72
      87,      14,      15,      74,      73
      88,      15,      16,      75,      74
      89,      16,      17,      56,      75
      90,      34,      35,      76,      52
      91,      35,      36,      80,      76
      92,      38,      39,      78,      77
      93,      39,      40,      79,      78
      94,      40,      41,      92,      79
      95,      50,      51,      80,      69
      96,      80,      51,      52,      76
      97,      57,      58,      83,      82
      98,      71,      72,      82,      81
      99,      58,      59,      85,      83
     100,      59,      60,      84,      85
     101,      63,      64,      86,      87
     102,      65,      66,      86,      64
     103,      66,      67,      77,      86
     104,      82,      83,      85,      81
     105,      77,      78,      87,      86
     106,      88,      80,      36,      37
     107,      88,      37,      38,      77
     108,      88,      68,      69,      80
     109,      72,      73,      90,      82
     110,      73,      74,      75,      90
     111,      77,      67,      68,      88
     112,      75,      56,      89,      90
     113,      90,      89,      57,      82
     114,      93,      71,      81,      91
     115,      91,      81,      85,      84
     116,      91,      92,      70,      93
     117,      92,      41,      10,      70
     118,      70,      10,      11,      93
     119,      87,      94,      62,      63
     120,      94,      95,      61,      62
     121,      95,      84,      60,      61
     122,      94,      87,      78,      79
     123,      95,      94,      79,      92
     124,      84,      95,      92,      91
**
********************************** S I D E S E T S **********************************
*ELSET, ELSET=SS1_E1
      24,      25,      26,      27,      28,      29,      30,      90,      91,      92,
      93,      94
*ELSET, ELSET=SS1_E2
      23,     107,     117
*ELSET, ELSET=SS1_E3
     106
*SURFACE, NAME=SS1
SS1_E1, E1
SS1_E2, E2
SS1_E3, E3
*ELSET, ELSET=SS2_E1
      17,      18,      19,      20,      21,      22,      23,      31,      32,      84,
      85,      86,      87,      88,      89,      95
*ELSET, ELSET=SS2_E2
      16,      30,      83,      96,     118
*ELSET, ELSET=SS2_E4
       1,      68,      90
*SURFACE, NAME=SS2
SS2_E1, E1
SS2_E2, E2
SS2_E4, E4
*ELSET, ELSET=SS7_E1
       9,      10,      11,      12,      13,      14,      15,      16,      68,      69,
      70,      71,      72,      73,      74,      75
*SURFACE, NAME=SS7
SS7_E1, E1
*ELSET, ELSET=SS8_E1
       1,       2,       3,       4,       5,       6,       7,       8,      76,      77,
      78,      79,      80,      81,      82,      83
*SURFACE, NAME=SS8
SS8_E1, E1
**
********************************** P R O P E R T I E S ************************
*SHELL SECTION, ELSET=EB1, SECTION INTEGRATION=SIMPSON, MATERIAL=Default-Steel
1.000000e+00
*SHELL SECTION, ELSET=EB2, SECTION INTEGRATION=SIMPSON, MATERIAL=Default-Steel
1.000000e+00
**
*END PART
**
**
**
********************************** E N D   P A R T S **********************************
**
**
********************************** A S S E M B L Y ************************************
**
*ASSEMBLY, NAME=ASSEMBLY1
**
*INSTANCE, NAME=Part-Default_1, PART=Part-Default
*END INSTANCE
**
*END ASSEMBLY
**
**
**
*MATERIAL, NAME = Default-Steel
*ELASTIC, TYPE=ISOTROPIC
2.068000e+05, 2.900000e-01
*DENSITY
7.000000e-06
*CONDUCTIVITY,TYPE=ISO
4.500000e-02
*SPECIFIC HEAT
5.000000e+02
**
**
************************************** H I S T O R Y *************************************
**
*PREPRINT
**
**************************************** S T E P 1 ***************************************
*STEP,INC=100,NAME=Default Set
**
*STATIC
1, 1, 1e-05, 1
**
**
**
**
*END STEP
