*HEADING
cubit(sers/brittanyerickson/Desktop/test_mesh/BP9_2D_90d_v3.inp): 04/01/2026: 08
version: 2024.8
**
********************************** P A R T S **********************************
*PART, NAME=Part-Default
**
********************************** N O D E S **********************************
*NODE, NSET=ALLNODES
       1,   -4.000000e+02,    0.000000e+00,    0.000000e+00
       2,   -4.000000e+02,   -2.000000e+02,    0.000000e+00
       3,    4.000000e+02,   -2.000000e+02,    0.000000e+00
       4,    4.000000e+02,    0.000000e+00,    0.000000e+00
       5,    0.000000e+00,    0.000000e+00,    0.000000e+00
       6,    0.000000e+00,   -2.000000e+02,    0.000000e+00
**
********************************** E L E M E N T S ****************************
*ELEMENT, TYPE=S4R, ELSET=EB1
       1,       6,       5,       1,       2
*ELEMENT, TYPE=S4R, ELSET=EB2
       2,       5,       6,       3,       4
**
********************************** S I D E S E T S **********************************
*ELSET, ELSET=SS1_E3
       1,       2
*SURFACE, NAME=SS1
SS1_E3, E3
*ELSET, ELSET=SS2_E2
       1,       2
*ELSET, ELSET=SS2_E4
       1,       2
*SURFACE, NAME=SS2
SS2_E2, E2
SS2_E4, E4
*ELSET, ELSET=SS7_E1
       1,       2
*SURFACE, NAME=SS7
SS7_E1, E1
**
********************************** P R O P E R T I E S ************************
*SHELL SECTION, ELSET=EB1, SECTION INTEGRATION=SIMPSON, MATERIAL=Default-Steel
1.000000e+00
*SHELL SECTION, ELSET=EB2, SECTION INTEGRATION=SIMPSON, MATERIAL=Default-Steel
1.000000e+00
**
*END PART
**
**
**
********************************** E N D   P A R T S **********************************
**
**
********************************** A S S E M B L Y ************************************
**
*ASSEMBLY, NAME=ASSEMBLY1
**
*INSTANCE, NAME=Part-Default_1, PART=Part-Default
*END INSTANCE
**
*END ASSEMBLY
**
**
**
*MATERIAL, NAME = Default-Steel
*ELASTIC, TYPE=ISOTROPIC
2.068000e+05, 2.900000e-01
*DENSITY
7.000000e-06
*CONDUCTIVITY,TYPE=ISO
4.500000e-02
*SPECIFIC HEAT
5.000000e+02
**
**
************************************** H I S T O R Y *************************************
**
*PREPRINT
**
**************************************** S T E P 1 ***************************************
*STEP,INC=100,NAME=Default Set
**
*STATIC
1, 1, 1e-05, 1
**
**
**
**
*END STEP
