*HEADING
cubit(tanyerickson/Desktop/test_mesh/BP9_2D_30d_v2_constant.inp): 03/17/2026: 14
version: 2024.8
**
********************************** P A R T S **********************************
*PART, NAME=Part-Default
**
********************************** N O D E S **********************************
*NODE, NSET=ALLNODES
       1,    0.000000e+00,    0.000000e+00,    0.000000e+00
       2,    3.464102e+01,   -2.000000e+01,    0.000000e+00
       3,   -8.000000e+02,    0.000000e+00,    0.000000e+00
       4,   -1.000000e+02,    0.000000e+00,    0.000000e+00
       5,   -2.000000e+02,    0.000000e+00,    0.000000e+00
       6,   -3.000000e+02,    0.000000e+00,    0.000000e+00
       7,   -4.000000e+02,    0.000000e+00,    0.000000e+00
       8,   -5.000000e+02,    0.000000e+00,    0.000000e+00
       9,   -6.000000e+02,    0.000000e+00,    0.000000e+00
      10,   -7.000000e+02,    0.000000e+00,    0.000000e+00
      11,    8.000000e+02,    0.000000e+00,    0.000000e+00
      12,    7.000000e+02,    0.000000e+00,    0.000000e+00
      13,    6.000000e+02,    0.000000e+00,    0.000000e+00
      14,    5.000000e+02,    0.000000e+00,    0.000000e+00
      15,    4.000000e+02,    0.000000e+00,    0.000000e+00
      16,    3.000000e+02,    0.000000e+00,    0.000000e+00
      17,    2.000000e+02,    0.000000e+00,    0.000000e+00
      18,    1.000000e+02,    0.000000e+00,    0.000000e+00
      19,    3.464102e+02,   -2.000000e+02,    0.000000e+00
      20,    1.125833e+02,   -6.500000e+01,    0.000000e+00
      21,    1.905256e+02,   -1.100000e+02,    0.000000e+00
      22,    2.684679e+02,   -1.550000e+02,    0.000000e+00
      23,   -8.000000e+02,   -2.000000e+02,    0.000000e+00
      24,   -8.000000e+02,   -1.000000e+02,    0.000000e+00
      25,    8.000000e+02,   -2.000000e+02,    0.000000e+00
      26,    8.000000e+02,   -1.000000e+02,    0.000000e+00
      27,   -6.957809e+02,   -2.000000e+02,    0.000000e+00
      28,   -5.915618e+02,   -2.000000e+02,    0.000000e+00
      29,   -4.873427e+02,   -2.000000e+02,    0.000000e+00
      30,   -3.831236e+02,   -2.000000e+02,    0.000000e+00
      31,   -2.789045e+02,   -2.000000e+02,    0.000000e+00
      32,   -1.746854e+02,   -2.000000e+02,    0.000000e+00
      33,   -7.046626e+01,   -2.000000e+02,    0.000000e+00
      34,    3.375284e+01,   -2.000000e+02,    0.000000e+00
      35,    1.379720e+02,   -2.000000e+02,    0.000000e+00
      36,    2.421911e+02,   -2.000000e+02,    0.000000e+00
      37,    4.371281e+02,   -2.000000e+02,    0.000000e+00
      38,    5.278461e+02,   -2.000000e+02,    0.000000e+00
      39,    6.185641e+02,   -2.000000e+02,    0.000000e+00
      40,    7.092820e+02,   -2.000000e+02,    0.000000e+00
      41,    9.687278e+01,   -2.080612e+01,    0.000000e+00
      42,    1.558523e+02,   -4.274187e+01,    0.000000e+00
      43,    2.307082e+02,   -6.555360e+01,    0.000000e+00
      44,    2.800914e+02,   -1.068517e+02,    0.000000e+00
      45,    3.427957e+02,   -9.995754e+01,    0.000000e+00
      46,    4.250277e+02,   -1.000604e+02,    0.000000e+00
      47,    5.157176e+02,   -1.002257e+02,    0.000000e+00
      48,    6.097791e+02,   -1.003221e+02,    0.000000e+00
      49,    7.048752e+02,   -1.000846e+02,    0.000000e+00
      50,    2.240143e+02,   -1.683829e+02,    0.000000e+00
      51,    1.618921e+02,   -1.499565e+02,    0.000000e+00
      52,    8.226149e+01,   -1.263985e+02,    0.000000e+00
      53,    1.498664e+01,   -9.878778e+01,    0.000000e+00
      54,   -2.824489e+01,   -6.202277e+01,    0.000000e+00
      55,   -9.972131e+01,   -8.728053e+01,    0.000000e+00
      56,   -1.915024e+02,   -9.643297e+01,    0.000000e+00
      57,   -2.905093e+02,   -9.917096e+01,    0.000000e+00
      58,   -3.919154e+02,   -9.973110e+01,    0.000000e+00
      59,   -4.938295e+02,   -9.986688e+01,    0.000000e+00
      60,   -5.958706e+02,   -9.987091e+01,    0.000000e+00
      61,   -6.979340e+02,   -9.996838e+01,    0.000000e+00
**
********************************** E L E M E N T S ****************************
*ELEMENT, TYPE=S4R, ELSET=EB1
       1,      50,      36,      19,      22
       2,      51,      35,      36,      50
       3,      51,      50,      22,      21
       4,      52,      34,      35,      51
       5,      52,      51,      21,      20
       6,      20,       2,      53,      52
       7,       2,       1,      54,      53
       8,       1,       4,      55,      54
       9,       4,       5,      56,      55
      10,       5,       6,      57,      56
      11,       6,       7,      58,      57
      12,       7,       8,      59,      58
      13,       8,       9,      60,      59
      14,       9,      10,      61,      60
      15,      10,       3,      24,      61
      16,      34,      52,      53,      33
      17,      24,      23,      27,      61
      18,      27,      28,      60,      61
      19,      28,      29,      59,      60
      20,      29,      30,      58,      59
      21,      30,      31,      57,      58
      22,      31,      32,      56,      57
      23,      55,      56,      32,      33
      24,      33,      53,      54,      55
*ELEMENT, TYPE=S4R, ELSET=EB2
      25,      41,      18,       1,       2
      26,      42,      17,      18,      41
      27,      42,      41,       2,      20
      28,      43,      16,      17,      42
      29,      43,      42,      20,      21
      30,      43,      21,      22,      44
      31,      22,      19,      45,      44
      32,      19,      37,      46,      45
      33,      37,      38,      47,      46
      34,      38,      39,      48,      47
      35,      39,      40,      49,      48
      36,      40,      25,      26,      49
      37,      11,      12,      49,      26
      38,      12,      13,      48,      49
      39,      13,      14,      47,      48
      40,      46,      47,      14,      15
      41,      16,      43,      44,      45
      42,      16,      45,      46,      15
**
********************************** S I D E S E T S **********************************
*ELSET, ELSET=SS1_E1
      17
*ELSET, ELSET=SS1_E2
      15,      36
*ELSET, ELSET=SS1_E4
      37
*SURFACE, NAME=SS1
SS1_E1, E1
SS1_E2, E2
SS1_E4, E4
*ELSET, ELSET=SS2_E1
       8,       9,      10,      11,      12,      13,      14,      15,      18,      19,
      20,      21,      22,      32,      33,      34,      35,      36,      37,      38,
      39
*ELSET, ELSET=SS2_E2
       1,       2,       4,      17,      25,      26,      28
*ELSET, ELSET=SS2_E3
      23,      40
*ELSET, ELSET=SS2_E4
      16,      42
*SURFACE, NAME=SS2
SS2_E1, E1
SS2_E2, E2
SS2_E3, E3
SS2_E4, E4
*ELSET, ELSET=SS7_E1
       7
*ELSET, ELSET=SS7_E3
      25
*SURFACE, NAME=SS7
SS7_E1, E1
SS7_E3, E3
*ELSET, ELSET=SS8_E1
       6,      31
*ELSET, ELSET=SS8_E2
      30
*ELSET, ELSET=SS8_E3
       1,       3,       5,      27,      29
*SURFACE, NAME=SS8
SS8_E1, E1
SS8_E2, E2
SS8_E3, E3
**
********************************** P R O P E R T I E S ************************
*SHELL SECTION, ELSET=EB1, SECTION INTEGRATION=SIMPSON, MATERIAL=Default-Steel
1.000000e+00
*SHELL SECTION, ELSET=EB2, SECTION INTEGRATION=SIMPSON, MATERIAL=Default-Steel
1.000000e+00
**
*END PART
**
**
**
********************************** E N D   P A R T S **********************************
**
**
********************************** A S S E M B L Y ************************************
**
*ASSEMBLY, NAME=ASSEMBLY1
**
*INSTANCE, NAME=Part-Default_1, PART=Part-Default
*END INSTANCE
**
*END ASSEMBLY
**
**
**
*MATERIAL, NAME = Default-Steel
*ELASTIC, TYPE=ISOTROPIC
2.068000e+05, 2.900000e-01
*DENSITY
7.000000e-06
*CONDUCTIVITY,TYPE=ISO
4.500000e-02
*SPECIFIC HEAT
5.000000e+02
**
**
************************************** H I S T O R Y *************************************
**
*PREPRINT
**
**************************************** S T E P 1 ***************************************
*STEP,INC=100,NAME=Default Set
**
*STATIC
1, 1, 1e-05, 1
**
**
**
**
*END STEP
