*HEADING
cubit(rittanyerickson/Desktop/test_mesh/BP9_2D__60degree_v1.inp): 05/29/2026: 15
version: 2024.8
**
********************************** P A R T S **********************************
*PART, NAME=Part-Default
**
********************************** N O D E S **********************************
*NODE, NSET=ALLNODES
       1,    0.000000e+00,    0.000000e+00,    0.000000e+00
       2,   -4.000000e+01,    0.000000e+00,    0.000000e+00
       3,   -2.000000e+00,    0.000000e+00,    0.000000e+00
       4,   -4.461859e+00,    0.000000e+00,    0.000000e+00
       5,   -7.515899e+00,    0.000000e+00,    0.000000e+00
       6,   -1.133302e+01,    0.000000e+00,    0.000000e+00
       7,   -1.613698e+01,    0.000000e+00,    0.000000e+00
       8,   -2.222611e+01,    0.000000e+00,    0.000000e+00
       9,   -3.000000e+01,    0.000000e+00,    0.000000e+00
      10,    4.000000e+01,    0.000000e+00,    0.000000e+00
      11,    3.000000e+01,    0.000000e+00,    0.000000e+00
      12,    2.222611e+01,    0.000000e+00,    0.000000e+00
      13,    1.613698e+01,    0.000000e+00,    0.000000e+00
      14,    1.133302e+01,    0.000000e+00,    0.000000e+00
      15,    7.515899e+00,    0.000000e+00,    0.000000e+00
      16,    4.461859e+00,    0.000000e+00,    0.000000e+00
      17,    2.000000e+00,    0.000000e+00,    0.000000e+00
      18,    4.000000e+01,   -6.928000e+01,    0.000000e+00
      19,    2.000000e+01,   -3.464000e+01,    0.000000e+00
      20,    3.499989e+01,   -6.061981e+01,    0.000000e+00
      21,    3.111294e+01,   -5.388761e+01,    0.000000e+00
      22,    2.806841e+01,   -4.861449e+01,    0.000000e+00
      23,    2.566648e+01,   -4.445434e+01,    0.000000e+00
      24,    2.375795e+01,   -4.114878e+01,    0.000000e+00
      25,    2.223095e+01,   -3.850401e+01,    0.000000e+00
      26,    2.100002e+01,   -3.637204e+01,    0.000000e+00
      27,    1.000000e+00,   -1.732000e+00,    0.000000e+00
      28,    2.000000e+00,   -3.464000e+00,    0.000000e+00
      29,    3.000000e+00,   -5.196000e+00,    0.000000e+00
      30,    4.000000e+00,   -6.928000e+00,    0.000000e+00
      31,    5.000000e+00,   -8.660000e+00,    0.000000e+00
      32,    6.000000e+00,   -1.039200e+01,    0.000000e+00
      33,    7.000000e+00,   -1.212400e+01,    0.000000e+00
      34,    8.000000e+00,   -1.385600e+01,    0.000000e+00
      35,    9.000000e+00,   -1.558800e+01,    0.000000e+00
      36,    1.000000e+01,   -1.732000e+01,    0.000000e+00
      37,    1.100000e+01,   -1.905200e+01,    0.000000e+00
      38,    1.200000e+01,   -2.078400e+01,    0.000000e+00
      39,    1.300000e+01,   -2.251600e+01,    0.000000e+00
      40,    1.400000e+01,   -2.424800e+01,    0.000000e+00
      41,    1.500000e+01,   -2.598000e+01,    0.000000e+00
      42,    1.600000e+01,   -2.771200e+01,    0.000000e+00
      43,    1.700000e+01,   -2.944400e+01,    0.000000e+00
      44,    1.800000e+01,   -3.117600e+01,    0.000000e+00
      45,    1.900000e+01,   -3.290800e+01,    0.000000e+00
      46,    8.000000e+01,   -6.928000e+01,    0.000000e+00
      47,    7.500000e+01,   -6.062000e+01,    0.000000e+00
      48,    7.000000e+01,   -5.196000e+01,    0.000000e+00
      49,    6.500000e+01,   -4.330000e+01,    0.000000e+00
      50,    6.000000e+01,   -3.464000e+01,    0.000000e+00
      51,    5.500000e+01,   -2.598000e+01,    0.000000e+00
      52,    5.000000e+01,   -1.732000e+01,    0.000000e+00
      53,    4.500000e+01,   -8.660000e+00,    0.000000e+00
      54,    0.000000e+00,   -6.928000e+01,    0.000000e+00
      55,   -3.500000e+01,   -8.660000e+00,    0.000000e+00
      56,   -3.000000e+01,   -1.732000e+01,    0.000000e+00
      57,   -2.500000e+01,   -2.598000e+01,    0.000000e+00
      58,   -2.000000e+01,   -3.464000e+01,    0.000000e+00
      59,   -1.500000e+01,   -4.330000e+01,    0.000000e+00
      60,   -1.000000e+01,   -5.196000e+01,    0.000000e+00
      61,   -5.000000e+00,   -6.062000e+01,    0.000000e+00
      62,    5.000000e+01,   -6.928000e+01,    0.000000e+00
      63,    6.000000e+01,   -6.928000e+01,    0.000000e+00
      64,    7.000000e+01,   -6.928000e+01,    0.000000e+00
      65,    1.000000e+01,   -6.928000e+01,    0.000000e+00
      66,    2.000000e+01,   -6.928000e+01,    0.000000e+00
      67,    3.000000e+01,   -6.928000e+01,    0.000000e+00
      68,    2.762826e+00,   -1.634127e+00,    0.000000e+00
      69,    4.719242e+00,   -2.013957e+00,    0.000000e+00
      70,    4.211495e+00,   -3.815539e+00,    0.000000e+00
      71,    5.849107e+00,   -5.222422e+00,    0.000000e+00
      72,    7.528558e+00,   -7.130372e+00,    0.000000e+00
      73,    8.733876e+00,   -9.464638e+00,    0.000000e+00
      74,    9.252754e+00,   -1.167313e+01,    0.000000e+00
      75,    9.311426e+00,   -1.329299e+01,    0.000000e+00
      76,    1.058759e+01,   -1.432377e+01,    0.000000e+00
      77,    1.206684e+01,   -1.598490e+01,    0.000000e+00
      78,    1.338578e+01,   -1.799425e+01,    0.000000e+00
      79,    1.438632e+01,   -2.010667e+01,    0.000000e+00
      80,    1.527657e+01,   -2.214574e+01,    0.000000e+00
      81,    1.594483e+01,   -2.409116e+01,    0.000000e+00
      82,    1.606174e+01,   -2.557392e+01,    0.000000e+00
      83,    1.720697e+01,   -2.659860e+01,    0.000000e+00
      84,    1.842928e+01,   -2.836418e+01,    0.000000e+00
      85,    1.952016e+01,   -3.013749e+01,    0.000000e+00
      86,    2.073664e+01,   -3.181602e+01,    0.000000e+00
      87,    2.200792e+01,   -3.365490e+01,    0.000000e+00
      88,    2.318857e+01,   -3.574268e+01,    0.000000e+00
      89,    2.370465e+01,   -3.779860e+01,    0.000000e+00
      90,    2.555461e+01,   -3.895921e+01,    0.000000e+00
      91,    2.796060e+01,   -4.136169e+01,    0.000000e+00
      92,    3.078054e+01,   -4.420914e+01,    0.000000e+00
      93,    3.484489e+01,   -4.709993e+01,    0.000000e+00
      94,    5.228676e+01,   -6.042939e+01,    0.000000e+00
      95,    3.476079e+01,   -1.018551e+01,    0.000000e+00
      96,    2.436431e+01,   -6.662732e+00,    0.000000e+00
      97,    1.722949e+01,   -5.617995e+00,    0.000000e+00
      98,    1.105500e+01,   -4.837251e+00,    0.000000e+00
      99,    7.235250e+00,   -2.892541e+00,    0.000000e+00
     100,    6.664936e+01,   -6.136705e+01,    0.000000e+00
     101,    6.374597e+01,   -5.426570e+01,    0.000000e+00
     102,    5.937618e+01,   -4.830964e+01,    0.000000e+00
     103,    5.376510e+01,   -4.133566e+01,    0.000000e+00
     104,    4.659902e+01,   -3.234859e+01,    0.000000e+00
     105,    4.221711e+01,   -2.046321e+01,    0.000000e+00
     106,    5.919598e+01,   -6.201508e+01,    0.000000e+00
     107,    1.230481e+01,   -9.171002e+00,    0.000000e+00
     108,    1.176868e+01,   -1.231086e+01,    0.000000e+00
     109,    1.609718e+01,   -1.692036e+01,    0.000000e+00
     110,    1.708865e+01,   -1.965981e+01,    0.000000e+00
     111,    1.770533e+01,   -2.217378e+01,    0.000000e+00
     112,    1.835871e+01,   -2.487225e+01,    0.000000e+00
     113,    1.993741e+01,   -2.725686e+01,    0.000000e+00
     114,    2.097424e+01,   -2.906450e+01,    0.000000e+00
     115,    2.235269e+01,   -3.048935e+01,    0.000000e+00
     116,    2.412012e+01,   -3.240134e+01,    0.000000e+00
     117,    2.619115e+01,   -3.550873e+01,    0.000000e+00
     118,    2.962818e+01,   -3.809852e+01,    0.000000e+00
     119,    3.233526e+01,   -4.050694e+01,    0.000000e+00
     120,    5.474185e+01,   -5.357314e+01,    0.000000e+00
     121,    5.922793e+01,   -5.661798e+01,    0.000000e+00
     122,    4.925018e+01,   -4.900223e+01,    0.000000e+00
     123,    4.317843e+01,   -4.335883e+01,    0.000000e+00
     124,    3.569550e+01,   -2.309635e+01,    0.000000e+00
     125,    3.111278e+01,   -1.649179e+01,    0.000000e+00
     126,    2.464996e+01,   -1.278742e+01,    0.000000e+00
     127,    1.766361e+01,   -1.138397e+01,    0.000000e+00
     128,    1.429877e+01,   -1.418479e+01,    0.000000e+00
     129,    3.810349e+01,   -3.078817e+01,    0.000000e+00
     130,    3.667021e+01,   -3.912057e+01,    0.000000e+00
     131,    1.969645e+01,   -1.631452e+01,    0.000000e+00
     132,    2.002824e+01,   -1.963692e+01,    0.000000e+00
     133,    2.014780e+01,   -2.216793e+01,    0.000000e+00
     134,    2.082306e+01,   -2.443705e+01,    0.000000e+00
     135,    2.172126e+01,   -2.656974e+01,    0.000000e+00
     136,    2.210412e+01,   -2.814315e+01,    0.000000e+00
     137,    2.361686e+01,   -2.879522e+01,    0.000000e+00
     138,    2.583064e+01,   -3.015965e+01,    0.000000e+00
     139,    2.821555e+01,   -3.251709e+01,    0.000000e+00
     140,    3.173604e+01,   -3.463516e+01,    0.000000e+00
     141,    3.263780e+01,   -2.986102e+01,    0.000000e+00
     142,    3.093947e+01,   -2.507959e+01,    0.000000e+00
     143,    2.797558e+01,   -2.045376e+01,    0.000000e+00
     144,    2.407364e+01,   -1.745719e+01,    0.000000e+00
     145,    2.299828e+01,   -2.048578e+01,    0.000000e+00
     146,    2.204771e+01,   -2.223676e+01,    0.000000e+00
     147,    2.300921e+01,   -2.400858e+01,    0.000000e+00
     148,    2.383323e+01,   -2.647015e+01,    0.000000e+00
     149,    2.720483e+01,   -2.694920e+01,    0.000000e+00
     150,    2.935726e+01,   -2.984737e+01,    0.000000e+00
     151,    2.536851e+01,   -2.282252e+01,    0.000000e+00
     152,    2.991440e+00,   -2.971222e+00,    0.000000e+00
     153,    4.546754e+01,   -5.709406e+01,    0.000000e+00
     154,    3.980730e+01,   -5.181883e+01,    0.000000e+00
     155,    2.721352e+01,   -6.208294e+01,    0.000000e+00
     156,    2.493603e+01,   -5.602721e+01,    0.000000e+00
     157,    2.276123e+01,   -5.081338e+01,    0.000000e+00
     158,    2.115190e+01,   -4.603983e+01,    0.000000e+00
     159,    2.070336e+01,   -4.210039e+01,    0.000000e+00
     160,    2.065855e+01,   -3.968658e+01,    0.000000e+00
     161,    1.908177e+01,   -3.837996e+01,    0.000000e+00
     162,    1.755174e+01,   -3.653491e+01,    0.000000e+00
     163,    1.615401e+01,   -3.447023e+01,    0.000000e+00
     164,    1.525698e+01,   -3.220197e+01,    0.000000e+00
     165,    1.462835e+01,   -3.005972e+01,    0.000000e+00
     166,    1.465176e+01,   -2.834246e+01,    0.000000e+00
     167,    1.338436e+01,   -2.720885e+01,    0.000000e+00
     168,    1.231197e+01,   -2.536397e+01,    0.000000e+00
     169,    1.148675e+01,   -2.352355e+01,    0.000000e+00
     170,    1.075389e+01,   -2.200341e+01,    0.000000e+00
     171,    9.634144e+00,   -2.060801e+01,    0.000000e+00
     172,    8.390871e+00,   -1.912115e+01,    0.000000e+00
     173,    7.136206e+00,   -1.740818e+01,    0.000000e+00
     174,    5.940366e+00,   -1.555333e+01,    0.000000e+00
     175,    4.748342e+00,   -1.358965e+01,    0.000000e+00
     176,    3.665725e+00,   -1.159486e+01,    0.000000e+00
     177,    2.810357e+00,   -9.563905e+00,    0.000000e+00
     178,    2.654089e+00,   -7.737787e+00,    0.000000e+00
     179,    1.151910e+00,   -6.721455e+00,    0.000000e+00
     180,   -2.651824e-01,   -4.819563e+00,    0.000000e+00
     181,   -1.342405e+00,   -2.498544e+00,    0.000000e+00
     182,   -4.124959e+00,   -3.389371e+00,    0.000000e+00
     183,   -7.715696e+00,   -4.316786e+00,    0.000000e+00
     184,   -1.188792e+01,   -4.595735e+00,    0.000000e+00
     185,   -1.622313e+01,   -4.595496e+00,    0.000000e+00
     186,   -2.107421e+01,   -5.820384e+00,    0.000000e+00
     187,   -2.730456e+01,   -7.440453e+00,    0.000000e+00
     188,   -2.362810e+01,   -1.441175e+01,    0.000000e+00
     189,   -1.753376e+01,   -2.138810e+01,    0.000000e+00
     190,   -1.369733e+01,   -3.083678e+01,    0.000000e+00
     191,   -9.156547e+00,   -3.857390e+01,    0.000000e+00
     192,   -4.728843e+00,   -4.607345e+01,    0.000000e+00
     193,    1.264622e+01,   -6.257467e+01,    0.000000e+00
     194,    1.956567e+01,   -6.291160e+01,    0.000000e+00
     195,    1.886431e+01,   -5.732002e+01,    0.000000e+00
     196,    1.710511e+01,   -5.222693e+01,    0.000000e+00
     197,    1.524226e+01,   -4.617460e+01,    0.000000e+00
     198,    1.752165e+01,   -4.119537e+01,    0.000000e+00
     199,    1.495776e+01,   -3.889499e+01,    0.000000e+00
     200,    1.316745e+01,   -3.602550e+01,    0.000000e+00
     201,    1.205614e+01,   -3.290334e+01,    0.000000e+00
     202,    1.163411e+01,   -2.933253e+01,    0.000000e+00
     203,    1.029600e+01,   -2.635486e+01,    0.000000e+00
     204,    9.843718e+00,   -2.423551e+01,    0.000000e+00
     205,    9.690934e+00,   -2.279459e+01,    0.000000e+00
     206,    8.483499e+00,   -2.210163e+01,    0.000000e+00
     207,    3.845397e+00,   -1.741301e+01,    0.000000e+00
     208,    2.407680e+00,   -1.525226e+01,    0.000000e+00
     209,    1.050549e+00,   -1.287350e+01,    0.000000e+00
     210,   -3.242937e-01,   -9.678411e+00,    0.000000e+00
     211,   -2.892006e+00,   -6.818455e+00,    0.000000e+00
     212,   -7.225387e+00,   -9.604299e+00,    0.000000e+00
     213,   -1.221845e+01,   -9.206527e+00,    0.000000e+00
     214,   -1.573359e+01,   -8.273657e+00,    0.000000e+00
     215,   -1.874559e+01,   -1.066617e+01,    0.000000e+00
     216,   -1.444879e+01,   -1.390874e+01,    0.000000e+00
     217,   -7.856726e+00,   -2.768997e+01,    0.000000e+00
     218,   -2.926877e+00,   -3.413399e+01,    0.000000e+00
     219,   -2.504263e-01,   -4.159115e+01,    0.000000e+00
     220,    1.435862e+01,   -5.816797e+01,    0.000000e+00
     221,   -1.012307e+01,   -2.126641e+01,    0.000000e+00
     222,   -9.552117e+00,   -1.542337e+01,    0.000000e+00
     223,    1.156534e+01,   -5.460921e+01,    0.000000e+00
     224,    8.940955e+00,   -4.930942e+01,    0.000000e+00
     225,    7.021237e+00,   -4.414996e+01,    0.000000e+00
     226,    1.158935e+01,   -4.179924e+01,    0.000000e+00
     227,    9.364837e+00,   -3.790039e+01,    0.000000e+00
     228,    8.235513e+00,   -3.381086e+01,    0.000000e+00
     229,    7.842560e+00,   -2.987532e+01,    0.000000e+00
     230,    7.646793e+00,   -2.657986e+01,    0.000000e+00
     231,    7.895478e+00,   -2.399659e+01,    0.000000e+00
     232,    1.764341e+00,   -1.955624e+01,    0.000000e+00
     233,    1.548232e-01,   -1.722799e+01,    0.000000e+00
     234,   -1.398655e+00,   -1.497614e+01,    0.000000e+00
     235,   -3.727485e+00,   -1.269592e+01,    0.000000e+00
     236,   -5.591524e+00,   -1.631819e+01,    0.000000e+00
     237,   -5.416125e+00,   -2.035850e+01,    0.000000e+00
     238,   -3.612383e+00,   -2.454996e+01,    0.000000e+00
     239,   -3.009403e-01,   -2.803434e+01,    0.000000e+00
     240,    3.889259e+00,   -2.964524e+01,    0.000000e+00
     241,    4.905726e+00,   -3.954312e+01,    0.000000e+00
     242,    3.596888e+00,   -3.440775e+01,    0.000000e+00
     243,    4.742138e+00,   -2.587088e+01,    0.000000e+00
     244,    1.866781e+00,   -2.429412e+01,    0.000000e+00
     245,   -3.083016e+00,   -1.689353e+01,    0.000000e+00
     246,   -2.177573e+00,   -1.914027e+01,    0.000000e+00
     247,   -5.538733e-01,   -2.191465e+01,    0.000000e+00
     248,    6.473519e+00,   -5.917940e+01,    0.000000e+00
     249,    1.574228e+00,   -5.209319e+01,    0.000000e+00
     250,    6.956770e+00,   -2.091508e+01,    0.000000e+00
     251,    5.344688e+00,   -1.938534e+01,    0.000000e+00
     252,    5.766443e+00,   -2.310668e+01,    0.000000e+00
     253,    3.648342e+00,   -2.160226e+01,    0.000000e+00
     254,    2.781680e+00,   -4.594477e+01,    0.000000e+00
**
********************************** E L E M E N T S ****************************
*ELEMENT, TYPE=S4R, ELSET=EB1
       1,      18,      20,     155,      67
       2,      20,      21,     156,     155
       3,      21,      22,     157,     156
       4,      22,      23,     158,     157
       5,      23,      24,     159,     158
       6,      24,      25,     160,     159
       7,      25,      26,     161,     160
       8,      26,      19,     162,     161
       9,      19,      45,     163,     162
      10,      45,      44,     164,     163
      11,      44,      43,     165,     164
      12,      43,      42,     166,     165
      13,      42,      41,     167,     166
      14,      41,      40,     168,     167
      15,      40,      39,     169,     168
      16,      39,      38,     170,     169
      17,      38,      37,     171,     170
      18,      37,      36,     172,     171
      19,      36,      35,     173,     172
      20,      35,      34,     174,     173
      21,      34,      33,     175,     174
      22,      33,      32,     176,     175
      23,      32,      31,     177,     176
      24,      31,      30,     178,     177
      25,      30,      29,     179,     178
      26,      29,      28,     180,     179
      27,      28,      27,     181,     180
      28,      27,       1,       3,     181
      29,       3,       4,     182,     181
      30,       4,       5,     183,     182
      31,       5,       6,     184,     183
      32,       6,       7,     185,     184
      33,       7,       8,     186,     185
      34,       8,       9,     187,     186
      35,       9,       2,      55,     187
      36,      55,      56,     188,     187
      37,      56,      57,     189,     188
      38,      57,      58,     190,     189
      39,      58,      59,     191,     190
      40,      59,      60,     192,     191
      41,      65,      66,     194,     193
      42,      66,      67,     155,     194
      43,     155,     156,     195,     194
      44,     156,     157,     196,     195
      45,     157,     158,     197,     196
      46,     158,     159,     198,     197
      47,     160,     161,     198,     159
      48,     161,     162,     199,     198
      49,     162,     163,     200,     199
      50,     163,     164,     201,     200
      51,     164,     165,     202,     201
      52,     166,     167,     202,     165
      53,     167,     168,     203,     202
      54,     168,     169,     204,     203
      55,     169,     170,     205,     204
      56,     170,     171,     206,     205
      57,     173,     174,     207,     251
      58,     174,     175,     208,     207
      59,     175,     176,     209,     208
      60,     176,     177,     210,     209
      61,     178,     179,     210,     177
      62,     179,     180,     211,     210
      63,     180,     181,     182,     211
      64,     182,     183,     212,     211
      65,     183,     184,     213,     212
      66,     184,     185,     214,     213
      67,     185,     186,     215,     214
      68,     186,     187,     188,     215
      69,     188,     189,     216,     215
      70,     190,     191,     218,     217
      71,     193,     194,     195,     220
      72,     191,     192,     219,     218
      73,     189,     190,     217,     221
      74,     216,     189,     221,     222
      75,     195,     196,     223,     220
      76,     196,     197,     224,     223
      77,     199,     200,     227,     226
      78,     200,     201,     228,     227
      79,     201,     202,     229,     228
      80,     202,     203,     230,     229
      81,     203,     204,     231,     230
      82,     205,     206,     231,     204
      83,     251,     207,     232,     253
      84,     207,     208,     233,     232
      85,     208,     209,     234,     233
      86,     209,     210,     235,     234
      87,     210,     211,     212,     235
      88,     215,     216,     213,     214
      89,     216,     222,     212,     213
      90,     212,     222,     236,     235
      91,     222,     221,     237,     236
      92,     221,     217,     238,     237
      93,     217,     218,     239,     238
      94,     218,     219,     241,     242
      95,     225,     226,     227,     241
      96,     227,     228,     242,     241
      97,     228,     229,     240,     242
      98,     229,     230,     243,     240
      99,     253,     232,     247,     244
     100,     232,     233,     246,     247
     101,     233,     234,     245,     246
     102,     234,     235,     236,     245
     103,     236,     237,     246,     245
     104,     237,     238,     247,     246
     105,     244,     247,     238,     239
     106,     239,     240,     243,     244
     107,     193,     248,      54,      65
     108,     248,     249,      61,      54
     109,     249,     192,      60,      61
     110,     248,     193,     220,     223
     111,     249,     248,     223,     224
     112,     199,     226,     197,     198
     113,     226,     225,     224,     197
     114,     171,     172,     250,     206
     115,     172,     173,     251,     250
     116,     250,     251,     253,     252
     117,     206,     250,     252,     231
     118,     231,     252,     243,     230
     119,     252,     253,     244,     243
     120,     218,     242,     240,     239
     121,     219,     192,     249,     254
     122,     254,     249,     224,     225
     123,     241,     219,     254,     225
*ELEMENT, TYPE=S4R, ELSET=EB2
     124,       1,      27,      68,      17
     125,      29,      30,      71,      70
     126,      30,      31,      72,      71
     127,      31,      32,      73,      72
     128,      32,      33,      74,      73
     129,      33,      34,      75,      74
     130,      34,      35,      76,      75
     131,      35,      36,      77,      76
     132,      36,      37,      78,      77
     133,      37,      38,      79,      78
     134,      38,      39,      80,      79
     135,      39,      40,      81,      80
     136,      40,      41,      82,      81
     137,      41,      42,      83,      82
     138,      42,      43,      84,      83
     139,      43,      44,      85,      84
     140,      44,      45,      86,      85
     141,      45,      19,      87,      86
     142,      19,      26,      88,      87
     143,      26,      25,      89,      88
     144,      25,      24,      90,      89
     145,      24,      23,      91,      90
     146,      23,      22,      92,      91
     147,      22,      21,      93,      92
     148,      10,      11,      95,      53
     149,      11,      12,      96,      95
     150,      12,      13,      97,      96
     151,      13,      14,      98,      97
     152,      14,      15,      99,      98
     153,      46,      47,     100,      64
     154,      47,      48,     101,     100
     155,      48,      49,     102,     101
     156,      49,      50,     103,     102
     157,      50,      51,     104,     103
     158,      51,      52,     105,     104
     159,      52,      53,      95,     105
     160,      62,      63,     106,      94
     161,      63,      64,     100,     106
     162,      17,      68,      69,      16
     163,      15,      16,      69,      99
     164,      69,      70,      71,      99
     165,      71,      72,      98,      99
     166,      72,      73,     107,      98
     167,      73,      74,     108,     107
     168,      75,      76,     108,      74
     169,      76,      77,     128,     108
     170,      77,      78,     109,     128
     171,      78,      79,     110,     109
     172,      79,      80,     111,     110
     173,      80,      81,     112,     111
     174,      82,      83,     112,      81
     175,      83,      84,     113,     112
     176,      84,      85,     114,     113
     177,      85,      86,     115,     114
     178,      86,      87,     116,     115
     179,      87,      88,     117,     116
     180,      89,      90,     117,      88
     181,      90,      91,     118,     117
     182,      91,      92,     119,     118
     183,      92,      93,     130,     119
     184,      94,     106,     121,     120
     185,     106,     100,     101,     121
     186,     101,     102,     120,     121
     187,     102,     103,     122,     120
     188,     103,     104,     123,     122
     189,     105,      95,     125,     124
     190,      95,      96,     126,     125
     191,      96,      97,     127,     126
     192,      97,      98,     107,     127
     193,     104,     105,     124,     129
     194,     123,     104,     129,     130
     195,     127,     107,     108,     128
     196,     128,     109,     131,     127
     197,     109,     110,     132,     131
     198,     110,     111,     133,     132
     199,     111,     112,     134,     133
     200,     112,     113,     135,     134
     201,     113,     114,     136,     135
     202,     114,     115,     137,     136
     203,     115,     116,     138,     137
     204,     116,     117,     139,     138
     205,     117,     118,     140,     139
     206,     118,     119,     130,     140
     207,     130,     129,     141,     140
     208,     129,     124,     142,     141
     209,     124,     125,     143,     142
     210,     125,     126,     144,     143
     211,     126,     127,     131,     144
     212,     131,     132,     145,     144
     213,     132,     133,     146,     145
     214,     133,     134,     147,     146
     215,     134,     135,     148,     147
     216,     136,     137,     148,     135
     217,     137,     138,     149,     148
     218,     138,     139,     150,     149
     219,     139,     140,     141,     150
     220,     141,     142,     149,     150
     221,     144,     145,     151,     143
     222,     146,     147,     151,     145
     223,      68,      27,      28,     152
     224,     152,      28,      29,      70
     225,      69,      68,     152,      70
     226,      94,     153,      18,      62
     227,     153,     154,      20,      18
     228,     154,      93,      21,      20
     229,     153,      94,     120,     122
     230,     154,     153,     122,     123
     231,      93,     154,     123,     130
     232,     151,     147,     148,     149
     233,     151,     149,     142,     143
**
********************************** S I D E S E T S **********************************
*ELSET, ELSET=SS1_E1
      36,      37,      38,      39,      40,     153,     154,     155,     156,     157,
     158,     159
*ELSET, ELSET=SS1_E2
      35
*ELSET, ELSET=SS1_E3
     108,     109
*ELSET, ELSET=SS1_E4
     148
*SURFACE, NAME=SS1
SS1_E1, E1
SS1_E2, E2
SS1_E3, E3
SS1_E4, E4
*ELSET, ELSET=SS2_E1
      29,      30,      31,      32,      33,      34,      35,      41,      42,     148,
     149,     150,     151,     152,     160,     161,     163
*ELSET, ELSET=SS2_E2
      28
*ELSET, ELSET=SS2_E3
     107,     226
*ELSET, ELSET=SS2_E4
       1,     124,     153,     162
*SURFACE, NAME=SS2
SS2_E1, E1
SS2_E2, E2
SS2_E3, E3
SS2_E4, E4
*ELSET, ELSET=SS7_E1
       9,      10,      11,      12,      13,      14,      15,      16,      17,      18,
      19,      20,      21,      22,      23,      24,      25,      26,      27,      28,
     124,     125,     126,     127,     128,     129,     130,     131,     132,     133,
     134,     135,     136,     137,     138,     139,     140,     141
*ELSET, ELSET=SS7_E2
     223,     224
*SURFACE, NAME=SS7
SS7_E1, E1
SS7_E2, E2
*ELSET, ELSET=SS8_E1
       1,       2,       3,       4,       5,       6,       7,       8,     142,     143,
     144,     145,     146,     147
*ELSET, ELSET=SS8_E3
     227,     228
*SURFACE, NAME=SS8
SS8_E1, E1
SS8_E3, E3
**
********************************** P R O P E R T I E S ************************
*SHELL SECTION, ELSET=EB1, SECTION INTEGRATION=SIMPSON, MATERIAL=Default-Steel
1.000000e+00
*SHELL SECTION, ELSET=EB2, SECTION INTEGRATION=SIMPSON, MATERIAL=Default-Steel
1.000000e+00
**
*END PART
**
**
**
********************************** E N D   P A R T S **********************************
**
**
********************************** A S S E M B L Y ************************************
**
*ASSEMBLY, NAME=ASSEMBLY1
**
*INSTANCE, NAME=Part-Default_1, PART=Part-Default
*END INSTANCE
**
*END ASSEMBLY
**
**
**
*MATERIAL, NAME = Default-Steel
*ELASTIC, TYPE=ISOTROPIC
2.068000e+05, 2.900000e-01
*DENSITY
7.000000e-06
*CONDUCTIVITY,TYPE=ISO
4.500000e-02
*SPECIFIC HEAT
5.000000e+02
**
**
************************************** H I S T O R Y *************************************
**
*PREPRINT
**
**************************************** S T E P 1 ***************************************
*STEP,INC=100,NAME=Default Set
**
*STATIC
1, 1, 1e-05, 1
**
**
**
**
*END STEP
