*HEADING
cubit(rittanyerickson/Desktop/test_mesh/BP9_2D__60degree_v4.inp): 05/29/2026: 15
version: 2024.8
**
********************************** P A R T S **********************************
*PART, NAME=Part-Default
**
********************************** N O D E S **********************************
*NODE, NSET=ALLNODES
       1,    0.000000e+00,    0.000000e+00,    0.000000e+00
       2,   -4.000000e+01,    0.000000e+00,    0.000000e+00
       3,   -5.000000e+00,    0.000000e+00,    0.000000e+00
       4,   -8.021173e+00,    0.000000e+00,    0.000000e+00
       5,   -1.030160e+01,    0.000000e+00,    0.000000e+00
       6,   -1.243863e+01,    0.000000e+00,    0.000000e+00
       7,   -1.492095e+01,    0.000000e+00,    0.000000e+00
       8,   -1.850583e+01,    0.000000e+00,    0.000000e+00
       9,   -2.500000e+01,    0.000000e+00,    0.000000e+00
      10,    4.000000e+01,    0.000000e+00,    0.000000e+00
      11,    2.500000e+01,    0.000000e+00,    0.000000e+00
      12,    1.850583e+01,    0.000000e+00,    0.000000e+00
      13,    1.492095e+01,    0.000000e+00,    0.000000e+00
      14,    1.243863e+01,    0.000000e+00,    0.000000e+00
      15,    1.030160e+01,    0.000000e+00,    0.000000e+00
      16,    8.021173e+00,    0.000000e+00,    0.000000e+00
      17,    5.000000e+00,    0.000000e+00,    0.000000e+00
      18,    4.000000e+01,   -6.928000e+01,    0.000000e+00
      19,    2.000000e+01,   -3.464000e+01,    0.000000e+00
      20,    3.249983e+01,   -5.628971e+01,    0.000000e+00
      21,    2.925278e+01,   -5.066582e+01,    0.000000e+00
      22,    2.746040e+01,   -4.756141e+01,    0.000000e+00
      23,    2.621928e+01,   -4.541180e+01,    0.000000e+00
      24,    2.515081e+01,   -4.356120e+01,    0.000000e+00
      25,    2.401063e+01,   -4.158641e+01,    0.000000e+00
      26,    2.250006e+01,   -3.897010e+01,    0.000000e+00
      27,    2.500000e+00,   -4.330000e+00,    0.000000e+00
      28,    5.000000e+00,   -8.660000e+00,    0.000000e+00
      29,    7.500000e+00,   -1.299000e+01,    0.000000e+00
      30,    1.000000e+01,   -1.732000e+01,    0.000000e+00
      31,    1.250000e+01,   -2.165000e+01,    0.000000e+00
      32,    1.500000e+01,   -2.598000e+01,    0.000000e+00
      33,    1.750000e+01,   -3.031000e+01,    0.000000e+00
      34,    8.000000e+01,   -6.928000e+01,    0.000000e+00
      35,    7.200000e+01,   -5.542400e+01,    0.000000e+00
      36,    6.400000e+01,   -4.156800e+01,    0.000000e+00
      37,    5.600000e+01,   -2.771200e+01,    0.000000e+00
      38,    4.800000e+01,   -1.385600e+01,    0.000000e+00
      39,    0.000000e+00,   -6.928000e+01,    0.000000e+00
      40,   -3.200000e+01,   -1.385600e+01,    0.000000e+00
      41,   -2.400000e+01,   -2.771200e+01,    0.000000e+00
      42,   -1.600000e+01,   -4.156800e+01,    0.000000e+00
      43,   -8.000000e+00,   -5.542400e+01,    0.000000e+00
      44,    5.333333e+01,   -6.928000e+01,    0.000000e+00
      45,    6.666667e+01,   -6.928000e+01,    0.000000e+00
      46,    1.333333e+01,   -6.928000e+01,    0.000000e+00
      47,    2.666667e+01,   -6.928000e+01,    0.000000e+00
      48,    5.668677e+00,   -3.072053e+00,    0.000000e+00
      49,    7.642143e+00,   -5.771047e+00,    0.000000e+00
      50,    1.037726e+01,   -8.591032e+00,    0.000000e+00
      51,    1.385495e+01,   -1.205418e+01,    0.000000e+00
      52,    2.509266e+01,   -3.159567e+01,    0.000000e+00
      53,    2.465232e+01,   -3.597640e+01,    0.000000e+00
      54,    2.410800e+01,   -3.842322e+01,    0.000000e+00
      55,    2.536170e+01,   -4.029664e+01,    0.000000e+00
      56,    2.612829e+01,   -4.206934e+01,    0.000000e+00
      57,    2.787235e+01,   -4.235019e+01,    0.000000e+00
      58,    3.095447e+01,   -4.291857e+01,    0.000000e+00
      59,    3.782240e+01,   -4.482019e+01,    0.000000e+00
      60,    4.514682e+01,   -5.590499e+01,    0.000000e+00
      61,    3.219317e+01,   -1.466100e+01,    0.000000e+00
      62,    2.072793e+01,   -8.495241e+00,    0.000000e+00
      63,    1.558376e+01,   -5.947325e+00,    0.000000e+00
      64,    1.215703e+01,   -4.323353e+00,    0.000000e+00
      65,    9.581916e+00,   -3.054824e+00,    0.000000e+00
      66,    5.832962e+01,   -5.551688e+01,    0.000000e+00
      67,    5.076664e+01,   -4.270876e+01,    0.000000e+00
      68,    4.426589e+01,   -2.979546e+01,    0.000000e+00
      69,    3.542320e+01,   -3.341378e+01,    0.000000e+00
      70,    2.524167e+01,   -2.363122e+01,    0.000000e+00
      71,    1.834161e+01,   -1.647779e+01,    0.000000e+00
      72,    3.009686e+01,   -3.678178e+01,    0.000000e+00
      73,    2.716597e+01,   -3.894487e+01,    0.000000e+00
      74,    7.746221e+00,   -2.062617e+00,    0.000000e+00
      75,    2.415685e+01,   -5.871322e+01,    0.000000e+00
      76,    2.334190e+01,   -5.161799e+01,    0.000000e+00
      77,    2.407777e+01,   -4.775217e+01,    0.000000e+00
      78,    2.459960e+01,   -4.587404e+01,    0.000000e+00
      79,    2.275112e+01,   -4.275737e+01,    0.000000e+00
      80,    2.079800e+01,   -4.219980e+01,    0.000000e+00
      81,    1.712513e+01,   -4.017761e+01,    0.000000e+00
      82,    1.311942e+01,   -3.600997e+01,    0.000000e+00
      83,    9.494021e+00,   -3.090880e+01,    0.000000e+00
      84,    4.024277e+00,   -3.694583e+01,    0.000000e+00
      85,    3.524740e+00,   -1.989496e+01,    0.000000e+00
      86,    1.090903e+00,   -1.426530e+01,    0.000000e+00
      87,   -8.767781e-01,   -9.002210e+00,    0.000000e+00
      88,   -2.599792e+00,   -4.291956e+00,    0.000000e+00
      89,   -6.798386e+00,   -3.811661e+00,    0.000000e+00
      90,   -9.898824e+00,   -3.100168e+00,    0.000000e+00
      91,   -1.210518e+01,   -2.307542e+00,    0.000000e+00
      92,   -1.397808e+01,   -3.822458e+00,    0.000000e+00
      93,   -1.740228e+01,   -6.279452e+00,    0.000000e+00
      94,   -2.318864e+01,   -1.021166e+01,    0.000000e+00
      95,    1.478561e+01,   -5.722536e+01,    0.000000e+00
      96,   -1.487207e+01,   -2.140489e+01,    0.000000e+00
      97,   -8.443598e+00,   -3.446484e+01,    0.000000e+00
      98,    1.689574e+01,   -4.787873e+01,    0.000000e+00
      99,    2.350176e+01,   -4.445816e+01,    0.000000e+00
     100,    2.150731e+01,   -4.554501e+01,    0.000000e+00
     101,   -1.085538e+01,   -6.562483e+00,    0.000000e+00
     102,   -1.257340e+01,   -1.172222e+01,    0.000000e+00
     103,   -5.800285e+00,   -1.422541e+01,    0.000000e+00
     104,   -6.267059e+00,   -8.367453e+00,    0.000000e+00
     105,    9.635938e+00,   -4.319525e+01,    0.000000e+00
     106,    6.284838e+00,   -2.550648e+01,    0.000000e+00
     107,    5.566766e+00,   -5.275365e+01,    0.000000e+00
     108,   -1.909190e+00,   -4.449715e+01,    0.000000e+00
     109,   -5.582095e-01,   -2.964629e+01,    0.000000e+00
     110,   -4.262491e+00,   -2.172576e+01,    0.000000e+00
**
********************************** E L E M E N T S ****************************
*ELEMENT, TYPE=S4R, ELSET=EB1
       1,      18,      20,      75,      47
       2,      20,      21,      76,      75
       3,      21,      22,      77,      76
       4,      22,      23,      78,      77
       5,      23,      24,      99,      78
       6,      24,      25,      79,      99
       7,      25,      26,      80,      79
       8,      26,      19,      81,      80
       9,      19,      33,      82,      81
      10,      33,      32,      83,      82
      11,      30,      29,      86,      85
      12,      29,      28,      87,      86
      13,      28,      27,      88,      87
      14,      27,       1,       3,      88
      15,       3,       4,      89,      88
      16,       4,       5,      90,      89
      17,       5,       6,      91,      90
      18,       6,       7,      92,      91
      19,       7,       8,      93,      92
      20,       8,       9,      94,      93
      21,       9,       2,      40,      94
      22,      46,      47,      75,      95
      23,      40,      41,      96,      94
      24,      41,      42,      97,      96
      25,      75,      76,      98,      95
      26,      76,      77,     100,      98
      27,      77,      78,      99,     100
      28,      79,      80,     100,      99
      29,      80,      81,      98,     100
      30,      91,      92,     101,      90
      31,      92,      93,     102,     101
      32,      93,      94,      96,     102
      33,      88,      89,     104,      87
      34,      89,      90,     101,     104
      35,     104,     101,     102,     103
      36,      87,     104,     103,      86
      37,     105,      98,      81,      82
      38,     105,      82,      83,      84
      39,      83,      32,      31,     106
      40,     106,      31,      30,      85
      41,      95,     107,      39,      46
      42,     107,     108,      43,      39
      43,     108,      97,      42,      43
      44,     107,      95,      98,     105
      45,     108,     107,     105,      84
      46,      84,      83,     106,     109
      47,     109,     106,      85,     110
      48,     110,      85,      86,     103
      49,     108,      84,     109,      97
      50,      97,     109,     110,      96
      51,      96,     110,     103,     102
*ELEMENT, TYPE=S4R, ELSET=EB2
      52,       1,      27,      48,      17
      53,      27,      28,      49,      48
      54,      28,      29,      50,      49
      55,      29,      30,      51,      50
      56,      30,      31,      71,      51
      57,      31,      32,      70,      71
      58,      32,      33,      52,      70
      59,      33,      19,      53,      52
      60,      19,      26,      54,      53
      61,      26,      25,      55,      54
      62,      25,      24,      56,      55
      63,      24,      23,      57,      56
      64,      23,      22,      58,      57
      65,      22,      21,      59,      58
      66,      21,      20,      60,      59
      67,      20,      18,      44,      60
      68,      10,      11,      61,      38
      69,      11,      12,      62,      61
      70,      12,      13,      63,      62
      71,      13,      14,      64,      63
      72,      14,      15,      65,      64
      73,      44,      45,      66,      60
      74,      45,      34,      35,      66
      75,      35,      36,      67,      66
      76,      36,      37,      68,      67
      77,      37,      38,      61,      68
      78,      66,      67,      59,      60
      79,      67,      68,      69,      59
      80,      68,      61,      70,      69
      81,      61,      62,      71,      70
      82,      62,      63,      51,      71
      83,      70,      52,      72,      69
      84,      52,      53,      73,      72
      85,      53,      54,      55,      73
      86,      56,      57,      73,      55
      87,      51,      63,      64,      50
      88,      50,      64,      65,      49
      89,      15,      16,      74,      65
      90,      17,      48,      74,      16
      91,      49,      65,      74,      48
      92,      69,      72,      58,      59
      93,      72,      73,      57,      58
**
********************************** S I D E S E T S **********************************
*ELSET, ELSET=SS1_E1
      23,      24,      75,      76,      77
*ELSET, ELSET=SS1_E2
      21,      74
*ELSET, ELSET=SS1_E3
      42,      43
*ELSET, ELSET=SS1_E4
      68
*SURFACE, NAME=SS1
SS1_E1, E1
SS1_E2, E2
SS1_E3, E3
SS1_E4, E4
*ELSET, ELSET=SS2_E1
      15,      16,      17,      18,      19,      20,      21,      22,      68,      69,
      70,      71,      72,      73,      74,      89
*ELSET, ELSET=SS2_E2
      14,      67
*ELSET, ELSET=SS2_E3
      41
*ELSET, ELSET=SS2_E4
       1,      52,      90
*SURFACE, NAME=SS2
SS2_E1, E1
SS2_E2, E2
SS2_E3, E3
SS2_E4, E4
*ELSET, ELSET=SS7_E1
       9,      10,      11,      12,      13,      14,      52,      53,      54,      55,
      56,      57,      58,      59
*ELSET, ELSET=SS7_E2
      39,      40
*SURFACE, NAME=SS7
SS7_E1, E1
SS7_E2, E2
*ELSET, ELSET=SS8_E1
       1,       2,       3,       4,       5,       6,       7,       8,      60,      61,
      62,      63,      64,      65,      66,      67
*SURFACE, NAME=SS8
SS8_E1, E1
**
********************************** P R O P E R T I E S ************************
*SHELL SECTION, ELSET=EB1, SECTION INTEGRATION=SIMPSON, MATERIAL=Default-Steel
1.000000e+00
*SHELL SECTION, ELSET=EB2, SECTION INTEGRATION=SIMPSON, MATERIAL=Default-Steel
1.000000e+00
**
*END PART
**
**
**
********************************** E N D   P A R T S **********************************
**
**
********************************** A S S E M B L Y ************************************
**
*ASSEMBLY, NAME=ASSEMBLY1
**
*INSTANCE, NAME=Part-Default_1, PART=Part-Default
*END INSTANCE
**
*END ASSEMBLY
**
**
**
*MATERIAL, NAME = Default-Steel
*ELASTIC, TYPE=ISOTROPIC
2.068000e+05, 2.900000e-01
*DENSITY
7.000000e-06
*CONDUCTIVITY,TYPE=ISO
4.500000e-02
*SPECIFIC HEAT
5.000000e+02
**
**
************************************** H I S T O R Y *************************************
**
*PREPRINT
**
**************************************** S T E P 1 ***************************************
*STEP,INC=100,NAME=Default Set
**
*STATIC
1, 1, 1e-05, 1
**
**
**
**
*END STEP
