*HEADING
cubit(rittanyerickson/Desktop/test_mesh/BP9_2D__30degree_v1.inp): 05/20/2026: 15
version: 2024.8
**
********************************** P A R T S **********************************
*PART, NAME=Part-Default
**
********************************** N O D E S **********************************
*NODE, NSET=ALLNODES
       1,    0.000000e+00,    0.000000e+00,    0.000000e+00
       2,   -4.000000e+01,    0.000000e+00,    0.000000e+00
       3,   -2.000000e+00,    0.000000e+00,    0.000000e+00
       4,   -3.996761e+00,    0.000000e+00,    0.000000e+00
       5,   -6.080336e+00,    0.000000e+00,    0.000000e+00
       6,   -8.354419e+00,    0.000000e+00,    0.000000e+00
       7,   -1.095205e+01,    0.000000e+00,    0.000000e+00
       8,   -1.405779e+01,    0.000000e+00,    0.000000e+00
       9,   -1.794354e+01,    0.000000e+00,    0.000000e+00
      10,   -2.303045e+01,    0.000000e+00,    0.000000e+00
      11,   -3.000000e+01,    0.000000e+00,    0.000000e+00
      12,    4.000000e+01,    0.000000e+00,    0.000000e+00
      13,    3.000000e+01,    0.000000e+00,    0.000000e+00
      14,    2.303045e+01,    0.000000e+00,    0.000000e+00
      15,    1.794354e+01,    0.000000e+00,    0.000000e+00
      16,    1.405779e+01,    0.000000e+00,    0.000000e+00
      17,    1.095205e+01,    0.000000e+00,    0.000000e+00
      18,    8.354419e+00,    0.000000e+00,    0.000000e+00
      19,    6.080336e+00,    0.000000e+00,    0.000000e+00
      20,    3.996761e+00,    0.000000e+00,    0.000000e+00
      21,    2.000000e+00,    0.000000e+00,    0.000000e+00
      22,    6.928203e+01,   -4.000000e+01,    0.000000e+00
      23,    3.464102e+01,   -2.000000e+01,    0.000000e+00
      24,    6.062178e+01,   -3.500000e+01,    0.000000e+00
      25,    5.458597e+01,   -3.151522e+01,    0.000000e+00
      26,    5.018058e+01,   -2.897177e+01,    0.000000e+00
      27,    4.681542e+01,   -2.702890e+01,    0.000000e+00
      28,    4.412577e+01,   -2.547603e+01,    0.000000e+00
      29,    4.187616e+01,   -2.417721e+01,    0.000000e+00
      30,    3.990674e+01,   -2.304017e+01,    0.000000e+00
      31,    3.810231e+01,   -2.199838e+01,    0.000000e+00
      32,    3.637307e+01,   -2.100000e+01,    0.000000e+00
      33,    1.732051e+00,   -1.000000e+00,    0.000000e+00
      34,    3.464102e+00,   -2.000000e+00,    0.000000e+00
      35,    5.196152e+00,   -3.000000e+00,    0.000000e+00
      36,    6.928203e+00,   -4.000000e+00,    0.000000e+00
      37,    8.660254e+00,   -5.000000e+00,    0.000000e+00
      38,    1.039230e+01,   -6.000000e+00,    0.000000e+00
      39,    1.212436e+01,   -7.000000e+00,    0.000000e+00
      40,    1.385641e+01,   -8.000000e+00,    0.000000e+00
      41,    1.558846e+01,   -9.000000e+00,    0.000000e+00
      42,    1.732051e+01,   -1.000000e+01,    0.000000e+00
      43,    1.905256e+01,   -1.100000e+01,    0.000000e+00
      44,    2.078461e+01,   -1.200000e+01,    0.000000e+00
      45,    2.251666e+01,   -1.300000e+01,    0.000000e+00
      46,    2.424871e+01,   -1.400000e+01,    0.000000e+00
      47,    2.598076e+01,   -1.500000e+01,    0.000000e+00
      48,    2.771281e+01,   -1.600000e+01,    0.000000e+00
      49,    2.944486e+01,   -1.700000e+01,    0.000000e+00
      50,    3.117691e+01,   -1.800000e+01,    0.000000e+00
      51,    3.290897e+01,   -1.900000e+01,    0.000000e+00
      52,    1.092820e+02,   -4.000000e+01,    0.000000e+00
      53,    1.006218e+02,   -3.500000e+01,    0.000000e+00
      54,    9.196152e+01,   -3.000000e+01,    0.000000e+00
      55,    8.330127e+01,   -2.500000e+01,    0.000000e+00
      56,    7.464102e+01,   -2.000000e+01,    0.000000e+00
      57,    6.598076e+01,   -1.500000e+01,    0.000000e+00
      58,    5.732051e+01,   -1.000000e+01,    0.000000e+00
      59,    4.866025e+01,   -5.000000e+00,    0.000000e+00
      60,    2.928203e+01,   -4.000000e+01,    0.000000e+00
      61,   -3.133975e+01,   -5.000000e+00,    0.000000e+00
      62,   -2.267949e+01,   -1.000000e+01,    0.000000e+00
      63,   -1.401924e+01,   -1.500000e+01,    0.000000e+00
      64,   -5.358984e+00,   -2.000000e+01,    0.000000e+00
      65,    3.301270e+00,   -2.500000e+01,    0.000000e+00
      66,    1.196152e+01,   -3.000000e+01,    0.000000e+00
      67,    2.062178e+01,   -3.500000e+01,    0.000000e+00
      68,    7.928203e+01,   -4.000000e+01,    0.000000e+00
      69,    8.928203e+01,   -4.000000e+01,    0.000000e+00
      70,    9.928203e+01,   -4.000000e+01,    0.000000e+00
      71,    3.928203e+01,   -4.000000e+01,    0.000000e+00
      72,    4.928203e+01,   -4.000000e+01,    0.000000e+00
      73,    5.928203e+01,   -4.000000e+01,    0.000000e+00
      74,    9.665275e+01,   -3.661509e+01,    0.000000e+00
      75,    9.011685e+01,   -3.486178e+01,    0.000000e+00
      76,    8.125083e+01,   -3.241514e+01,    0.000000e+00
      77,    2.525735e+00,   -6.769295e-01,    0.000000e+00
      78,    3.837820e+00,   -1.028198e+00,    0.000000e+00
      79,    5.686740e+00,   -1.522457e+00,    0.000000e+00
      80,    7.710473e+00,   -2.055409e+00,    0.000000e+00
      81,    1.342452e+01,   -5.451227e+00,    0.000000e+00
      82,    1.515762e+01,   -6.023886e+00,    0.000000e+00
      83,    1.725213e+01,   -6.920135e+00,    0.000000e+00
      84,    1.921724e+01,   -8.181966e+00,    0.000000e+00
      85,    2.082027e+01,   -9.635406e+00,    0.000000e+00
      86,    2.163532e+01,   -1.093357e+01,    0.000000e+00
      87,    2.323444e+01,   -1.114419e+01,    0.000000e+00
      88,    2.545849e+01,   -1.174860e+01,    0.000000e+00
      89,    2.796507e+01,   -1.282070e+01,    0.000000e+00
      90,    3.011501e+01,   -1.436602e+01,    0.000000e+00
      91,    3.161118e+01,   -1.606488e+01,    0.000000e+00
      92,    3.209327e+01,   -1.738766e+01,    0.000000e+00
      93,    3.479523e+01,   -1.901973e+01,    0.000000e+00
      94,    3.614750e+01,   -1.905329e+01,    0.000000e+00
      95,    3.809217e+01,   -1.981211e+01,    0.000000e+00
      96,    4.002764e+01,   -2.068091e+01,    0.000000e+00
      97,    4.199953e+01,   -2.139973e+01,    0.000000e+00
      98,    4.739685e+01,   -2.172901e+01,    0.000000e+00
      99,    5.157572e+01,   -2.192526e+01,    0.000000e+00
     100,    5.750303e+01,   -2.290080e+01,    0.000000e+00
     101,    6.437022e+01,   -2.578791e+01,    0.000000e+00
     102,    7.240226e+01,   -2.955970e+01,    0.000000e+00
     103,    4.129635e+01,   -1.628726e+01,    0.000000e+00
     104,    3.794069e+01,   -1.458256e+01,    0.000000e+00
     105,    3.137012e+01,   -5.191569e+00,    0.000000e+00
     106,    2.566621e+01,   -4.929818e+00,    0.000000e+00
     107,    1.609756e+01,   -3.500930e+00,    0.000000e+00
     108,    1.270152e+01,   -3.415304e+00,    0.000000e+00
     109,    9.974012e+00,   -2.656536e+00,    0.000000e+00
     110,    1.923162e+01,   -4.398355e+00,    0.000000e+00
     111,    2.173693e+01,   -6.438298e+00,    0.000000e+00
     112,    2.302052e+01,   -8.901044e+00,    0.000000e+00
     113,    2.635135e+01,   -8.812992e+00,    0.000000e+00
     114,    3.359718e+01,   -1.800591e+01,    0.000000e+00
     115,    3.467198e+01,   -1.667343e+01,    0.000000e+00
     116,    4.435527e+01,   -2.163069e+01,    0.000000e+00
     117,    4.028398e+01,   -1.854081e+01,    0.000000e+00
     118,    3.790229e+01,   -1.743441e+01,    0.000000e+00
     119,    3.125051e+01,   -9.980831e+00,    0.000000e+00
     120,    3.369299e+01,   -1.368174e+01,    0.000000e+00
     121,    4.286933e+01,   -1.339667e+01,    0.000000e+00
     122,    4.536838e+01,   -9.645779e+00,    0.000000e+00
     123,    3.806898e+01,   -1.086451e+01,    0.000000e+00
     124,    3.882838e+01,   -6.211465e+00,    0.000000e+00
     125,    5.013112e+01,   -1.469067e+01,    0.000000e+00
     126,    4.616253e+01,   -1.700615e+01,    0.000000e+00
     127,    4.350215e+01,   -1.852199e+01,    0.000000e+00
     128,    4.185174e+01,   -1.948450e+01,    0.000000e+00
     129,    5.748629e+01,   -3.672874e+01,    0.000000e+00
     130,    5.265863e+01,   -3.505703e+01,    0.000000e+00
     131,   -2.813515e+01,   -3.083373e+00,    0.000000e+00
     132,   -2.312990e+01,   -4.094843e+00,    0.000000e+00
     133,    4.906658e+01,   -3.203835e+01,    0.000000e+00
     134,    4.435828e+01,   -3.207950e+01,    0.000000e+00
     135,    4.099990e+01,   -2.843276e+01,    0.000000e+00
     136,    3.790686e+01,   -2.426118e+01,    0.000000e+00
     137,    3.650757e+01,   -2.307983e+01,    0.000000e+00
     138,    3.511801e+01,   -2.196658e+01,    0.000000e+00
     139,    3.414312e+01,   -2.093272e+01,    0.000000e+00
     140,    3.072557e+01,   -2.068715e+01,    0.000000e+00
     141,    2.818945e+01,   -1.999951e+01,    0.000000e+00
     142,    2.590240e+01,   -1.856615e+01,    0.000000e+00
     143,    2.412741e+01,   -1.684247e+01,    0.000000e+00
     144,    2.323739e+01,   -1.529951e+01,    0.000000e+00
     145,    2.138382e+01,   -1.510130e+01,    0.000000e+00
     146,    1.877874e+01,   -1.435897e+01,    0.000000e+00
     147,    1.630554e+01,   -1.284738e+01,    0.000000e+00
     148,    1.493699e+01,   -1.101356e+01,    0.000000e+00
     149,    1.450259e+01,   -9.707100e+00,    0.000000e+00
     150,    1.298232e+01,   -9.107739e+00,    0.000000e+00
     151,    1.121577e+01,   -8.020775e+00,    0.000000e+00
     152,    1.011772e+01,   -6.981755e+00,    0.000000e+00
     153,    2.905998e+00,   -3.127205e+00,    0.000000e+00
     154,    1.301671e+00,   -2.580068e+00,    0.000000e+00
     155,   -1.782361e+00,   -1.259581e+00,    0.000000e+00
     156,   -2.939154e+00,   -1.991712e+00,    0.000000e+00
     157,   -4.655660e+00,   -2.880179e+00,    0.000000e+00
     158,   -2.430293e+00,   -5.041351e+00,    0.000000e+00
     159,   -9.984038e+00,   -4.991810e+00,    0.000000e+00
     160,   -1.485832e+01,   -6.088166e+00,    0.000000e+00
     161,   -1.860059e+01,   -3.393631e+00,    0.000000e+00
     162,   -3.384405e+00,   -1.626239e+01,    0.000000e+00
     163,    4.355573e+00,   -2.012572e+01,    0.000000e+00
     164,    1.602710e+01,   -2.420796e+01,    0.000000e+00
     165,    2.376161e+01,   -2.941029e+01,    0.000000e+00
     166,    3.038634e+01,   -3.313032e+01,    0.000000e+00
     167,    3.199959e+01,   -2.854373e+01,    0.000000e+00
     168,    3.920788e+01,   -2.601036e+01,    0.000000e+00
     169,    3.280295e+01,   -2.093770e+01,    0.000000e+00
     170,    2.758108e+01,   -2.469342e+01,    0.000000e+00
     171,    1.083406e+01,   -1.307221e+01,    0.000000e+00
     172,    1.217175e+01,   -1.064139e+01,    0.000000e+00
     173,    9.799419e+00,   -8.903703e+00,    0.000000e+00
     174,    8.745076e+00,   -6.924491e+00,    0.000000e+00
     175,   -4.079273e-01,   -1.787031e+00,    0.000000e+00
     176,   -1.205263e+00,   -3.323066e+00,    0.000000e+00
     177,    3.615060e+00,   -7.967086e+00,    0.000000e+00
     178,    1.497455e+01,   -1.805371e+01,    0.000000e+00
     179,    2.313312e+01,   -2.161419e+01,    0.000000e+00
     180,    7.263348e+00,   -9.072433e+00,    0.000000e+00
     181,    2.114049e+01,   -1.806921e+01,    0.000000e+00
     182,    3.375054e+01,   -2.576835e+01,    0.000000e+00
     183,    3.509067e+01,   -2.411386e+01,    0.000000e+00
     184,    3.149521e+01,   -2.356578e+01,    0.000000e+00
     185,    3.360945e+01,   -2.268366e+01,    0.000000e+00
     186,    2.966776e-01,   -6.731847e+00,    0.000000e+00
     187,    6.564646e+00,   -6.292015e+00,    0.000000e+00
     188,   -6.913194e+00,   -3.890068e+00,    0.000000e+00
     189,    3.825027e+00,   -4.891455e+00,    0.000000e+00
     190,    9.920013e-01,   -4.419145e+00,    0.000000e+00
     191,    3.748654e+01,   -3.396894e+01,    0.000000e+00
     192,    3.657593e+01,   -2.956382e+01,    0.000000e+00
     193,    3.642803e+01,   -2.669757e+01,    0.000000e+00
     194,    3.641427e+01,   -2.496814e+01,    0.000000e+00
     195,   -9.547893e+00,   -1.196286e+01,    0.000000e+00
     196,   -6.477204e+00,   -9.353269e+00,    0.000000e+00
     197,   -4.210656e+00,   -7.045071e+00,    0.000000e+00
     198,   -5.812225e-01,   -9.496883e+00,    0.000000e+00
     199,   -1.822163e+00,   -1.271856e+01,    0.000000e+00
     200,    3.885499e+00,   -1.148810e+01,    0.000000e+00
     201,    4.379601e+00,   -1.554934e+01,    0.000000e+00
**
********************************** E L E M E N T S ****************************
*ELEMENT, TYPE=S4R, ELSET=EB1
       1,     129,      73,      22,      24
       2,     130,      72,      73,     129
       3,     130,     129,      24,      25
       4,     131,      11,       2,      61
       5,     132,      10,      11,     131
       6,     132,     131,      61,      62
       7,      25,      26,     133,     130
       8,      26,      27,     134,     133
       9,      27,      28,     135,     134
      10,      28,      29,     168,     135
      11,      29,      30,     136,     168
      12,      30,      31,     137,     136
      13,      31,      32,     138,     137
      14,      32,      23,     139,     138
      15,      23,      51,     169,     139
      16,      51,      50,     140,     169
      17,      50,      49,     141,     140
      18,      49,      48,     142,     141
      19,      48,      47,     143,     142
      20,      47,      46,     144,     143
      21,      46,      45,     145,     144
      22,      45,      44,     146,     145
      23,      44,      43,     147,     146
      24,      43,      42,     148,     147
      25,      42,      41,     149,     148
      26,      41,      40,     150,     149
      27,      40,      39,     151,     150
      28,      39,      38,     152,     151
      29,      38,      37,     174,     152
      30,      37,      36,     187,     174
      31,      36,      35,     189,     187
      32,      35,      34,     153,     189
      33,      34,      33,     154,     153
      34,      33,       1,     175,     154
      35,       1,       3,     155,     175
      36,       3,       4,     156,     155
      37,       4,       5,     157,     156
      38,       7,       8,     160,     159
      39,       8,       9,     161,     160
      40,       9,      10,     132,     161
      41,      64,      65,     163,     162
      42,      65,      66,     164,     163
      43,      66,      67,     165,     164
      44,      67,      60,     166,     165
      45,     137,     138,     185,     183
      46,     138,     139,     169,     185
      47,     141,     142,     179,     170
      48,     146,     147,     171,     178
      49,     147,     148,     172,     171
      50,     149,     150,     172,     148
      51,     150,     151,     173,     172
      52,     151,     152,     174,     173
      53,     155,     156,     176,     175
      54,     156,     157,     158,     176
      55,     163,     164,     178,     201
      56,     165,     166,     167,     170
      57,     164,     165,     170,     179
      58,     172,     173,     180,     171
      59,     181,     179,     142,     143
      60,     181,     143,     144,     145
      61,     181,     145,     146,     178
      62,     181,     178,     164,     179
      63,     182,     183,     185,     184
      64,     167,     182,     184,     170
      65,     170,     184,     140,     141
      66,     184,     185,     169,     140
      67,     199,     162,     163,     201
      68,     187,     180,     173,     174
      69,     157,       5,       6,     188
      70,     188,       6,       7,     159
      71,     189,     177,     180,     187
      72,     153,     154,     190,     189
      73,     154,     175,     176,     190
      74,     190,     176,     158,     186
      75,     189,     190,     186,     177
      76,     191,     166,      60,      71
      77,     192,     167,     166,     191
      78,     134,     135,     192,     191
      79,     193,     182,     167,     192
      80,     135,     168,     193,     192
      81,     136,     137,     183,     194
      82,     194,     183,     182,     193
      83,     168,     136,     194,     193
      84,      63,      64,     162,     195
      85,     195,     162,     199,     196
      86,     160,     195,     196,     159
      87,     197,     158,     157,     188
      88,     159,     196,     197,     188
      89,     158,     197,     198,     186
      90,     197,     196,     199,     198
      91,     198,     199,     201,     200
      92,     186,     198,     200,     177
      93,     177,     200,     171,     180
      94,     200,     201,     178,     171
      95,     195,     160,      62,      63
      96,     160,     161,     132,      62
      97,      72,     130,     133,     134
      98,      72,     134,     191,      71
*ELEMENT, TYPE=S4R, ELSET=EB2
      99,      74,      70,      52,      53
     100,      75,      69,      70,      74
     101,      75,      74,      53,      54
     102,      76,      68,      69,      75
     103,      76,      75,      54,      55
     104,      77,      21,       1,      33
     105,      78,      20,      21,      77
     106,      78,      77,      33,      34
     107,      79,      19,      20,      78
     108,      79,      78,      34,      35
     109,      19,      79,      80,      18
     110,      79,      35,      36,      80
     111,      36,      37,     109,      80
     112,      37,      38,     108,     109
     113,      38,      39,      81,     108
     114,      39,      40,      82,      81
     115,      40,      41,      83,      82
     116,      41,      42,      84,      83
     117,      42,      43,      85,      84
     118,      43,      44,      86,      85
     119,      44,      45,      87,      86
     120,      45,      46,      88,      87
     121,      46,      47,      89,      88
     122,      47,      48,      90,      89
     123,      48,      49,      91,      90
     124,      49,      50,      92,      91
     125,      50,      51,     114,      92
     126,      51,      23,      93,     114
     127,      23,      32,      94,      93
     128,      32,      31,      95,      94
     129,      31,      30,      96,      95
     130,      30,      29,      97,      96
     131,      29,      28,     116,      97
     132,      28,      27,      98,     116
     133,      27,      26,      99,      98
     134,      26,      25,     100,      99
     135,      25,      24,     101,     100
     136,      24,      22,     102,     101
     137,      22,      68,      76,     102
     138,      55,      56,     102,      76
     139,      56,      57,     101,     102
     140,      57,      58,     100,     101
     141,      59,      12,     124,     122
     142,      12,      13,     105,     124
     143,      13,      14,     106,     105
     144,      15,      16,     108,     107
     145,      16,      17,     109,     108
     146,     109,      17,      18,      80
     147,     108,      81,      82,     107
     148,      82,      83,     110,     107
     149,      83,      84,     111,     110
     150,      84,      85,     112,     111
     151,      86,      87,     112,      85
     152,      87,      88,     113,     112
     153,      88,      89,     119,     113
     154,      91,      92,     114,     115
     155,      93,      94,     115,     114
     156,      94,      95,     118,     115
     157,      95,      96,     117,     118
     158,      15,     107,     110,      14
     159,     103,     104,     118,     117
     160,     105,     106,     113,     119
     161,     106,      14,     110,     111
     162,     111,     112,     113,     106
     163,     120,     119,      89,      90
     164,     120,      90,      91,     115
     165,     120,     115,     118,     104
     166,     121,     122,     124,     123
     167,     103,     121,     123,     104
     168,     104,     123,     119,     120
     169,     123,     124,     105,     119
     170,      58,      59,     122,     125
     171,     100,      58,     125,      99
     172,     125,     122,     121,     126
     173,      99,     125,     126,      98
     174,     126,     121,     103,     127
     175,      98,     126,     127,     116
     176,     127,     103,     117,     128
     177,     128,     117,      96,      97
     178,     116,     127,     128,      97
**
********************************** S I D E S E T S **********************************
*ELSET, ELSET=SS1_E1
      41,      42,      43,      44,      84,     138,     139,     140,     141,     170
*ELSET, ELSET=SS1_E3
       4,       6,      95,      99,     101,     103
*SURFACE, NAME=SS1
SS1_E1, E1
SS1_E3, E3
*ELSET, ELSET=SS2_E1
      35,      36,      37,      38,      39,      40,     137,     142,     143,     144,
     145
*ELSET, ELSET=SS2_E2
       1,       2,       4,       5,      69,      70,      99,     100,     102,     104,
     105,     107,     146
*ELSET, ELSET=SS2_E3
      76
*ELSET, ELSET=SS2_E4
      98,     109,     158
*SURFACE, NAME=SS2
SS2_E1, E1
SS2_E2, E2
SS2_E3, E3
SS2_E4, E4
*ELSET, ELSET=SS7_E1
      15,      16,      17,      18,      19,      20,      21,      22,      23,      24,
      25,      26,      27,      28,      29,      30,      31,      32,      33,      34,
     111,     112,     113,     114,     115,     116,     117,     118,     119,     120,
     121,     122,     123,     124,     125,     126
*ELSET, ELSET=SS7_E2
     110
*ELSET, ELSET=SS7_E3
     104,     106,     108
*SURFACE, NAME=SS7
SS7_E1, E1
SS7_E2, E2
SS7_E3, E3
*ELSET, ELSET=SS8_E1
       7,       8,       9,      10,      11,      12,      13,      14,     127,     128,
     129,     130,     131,     132,     133,     134,     135,     136
*ELSET, ELSET=SS8_E3
       1,       3
*SURFACE, NAME=SS8
SS8_E1, E1
SS8_E3, E3
**
********************************** P R O P E R T I E S ************************
*SHELL SECTION, ELSET=EB1, SECTION INTEGRATION=SIMPSON, MATERIAL=Default-Steel
1.000000e+00
*SHELL SECTION, ELSET=EB2, SECTION INTEGRATION=SIMPSON, MATERIAL=Default-Steel
1.000000e+00
**
*END PART
**
**
**
********************************** E N D   P A R T S **********************************
**
**
********************************** A S S E M B L Y ************************************
**
*ASSEMBLY, NAME=ASSEMBLY1
**
*INSTANCE, NAME=Part-Default_1, PART=Part-Default
*END INSTANCE
**
*END ASSEMBLY
**
**
**
*MATERIAL, NAME = Default-Steel
*ELASTIC, TYPE=ISOTROPIC
2.068000e+05, 2.900000e-01
*DENSITY
7.000000e-06
*CONDUCTIVITY,TYPE=ISO
4.500000e-02
*SPECIFIC HEAT
5.000000e+02
**
**
************************************** H I S T O R Y *************************************
**
*PREPRINT
**
**************************************** S T E P 1 ***************************************
*STEP,INC=100,NAME=Default Set
**
*STATIC
1, 1, 1e-05, 1
**
**
**
**
*END STEP
