*HEADING
cubit(rittanyerickson/Desktop/test_mesh/BP9_2D__90degree_v1.inp): 05/21/2026: 10
version: 2024.8
**
********************************** P A R T S **********************************
*PART, NAME=Part-Default
**
********************************** N O D E S **********************************
*NODE, NSET=ALLNODES
       1,    0.000000e+00,    0.000000e+00,    0.000000e+00
       2,   -4.000000e+01,    0.000000e+00,    0.000000e+00
       3,   -2.000000e+00,    0.000000e+00,    0.000000e+00
       4,   -4.924899e+00,    0.000000e+00,    0.000000e+00
       5,   -9.012737e+00,    0.000000e+00,    0.000000e+00
       6,   -1.447484e+01,    0.000000e+00,    0.000000e+00
       7,   -2.145814e+01,    0.000000e+00,    0.000000e+00
       8,   -3.000000e+01,    0.000000e+00,    0.000000e+00
       9,    4.000000e+01,    0.000000e+00,    0.000000e+00
      10,    3.000000e+01,    0.000000e+00,    0.000000e+00
      11,    2.145814e+01,    0.000000e+00,    0.000000e+00
      12,    1.447484e+01,    0.000000e+00,    0.000000e+00
      13,    9.012737e+00,    0.000000e+00,    0.000000e+00
      14,    4.924899e+00,    0.000000e+00,    0.000000e+00
      15,    2.000000e+00,    0.000000e+00,    0.000000e+00
      16,    0.000000e+00,   -8.000000e+01,    0.000000e+00
      17,    0.000000e+00,   -4.000000e+01,    0.000000e+00
      18,    0.000000e+00,   -7.000000e+01,    0.000000e+00
      19,    0.000000e+00,   -6.145814e+01,    0.000000e+00
      20,    0.000000e+00,   -5.447484e+01,    0.000000e+00
      21,    0.000000e+00,   -4.901274e+01,    0.000000e+00
      22,    0.000000e+00,   -4.492490e+01,    0.000000e+00
      23,    0.000000e+00,   -4.200000e+01,    0.000000e+00
      24,    0.000000e+00,   -2.000000e+00,    0.000000e+00
      25,    0.000000e+00,   -4.000000e+00,    0.000000e+00
      26,    0.000000e+00,   -6.000000e+00,    0.000000e+00
      27,    0.000000e+00,   -8.000000e+00,    0.000000e+00
      28,    0.000000e+00,   -1.000000e+01,    0.000000e+00
      29,    0.000000e+00,   -1.200000e+01,    0.000000e+00
      30,    0.000000e+00,   -1.400000e+01,    0.000000e+00
      31,    0.000000e+00,   -1.600000e+01,    0.000000e+00
      32,    0.000000e+00,   -1.800000e+01,    0.000000e+00
      33,    0.000000e+00,   -2.000000e+01,    0.000000e+00
      34,    0.000000e+00,   -2.200000e+01,    0.000000e+00
      35,    0.000000e+00,   -2.400000e+01,    0.000000e+00
      36,    0.000000e+00,   -2.600000e+01,    0.000000e+00
      37,    0.000000e+00,   -2.800000e+01,    0.000000e+00
      38,    0.000000e+00,   -3.000000e+01,    0.000000e+00
      39,    0.000000e+00,   -3.200000e+01,    0.000000e+00
      40,    0.000000e+00,   -3.400000e+01,    0.000000e+00
      41,    0.000000e+00,   -3.600000e+01,    0.000000e+00
      42,    0.000000e+00,   -3.800000e+01,    0.000000e+00
      43,    4.000000e+01,   -8.000000e+01,    0.000000e+00
      44,    4.000000e+01,   -7.000000e+01,    0.000000e+00
      45,    4.000000e+01,   -6.000000e+01,    0.000000e+00
      46,    4.000000e+01,   -5.000000e+01,    0.000000e+00
      47,    4.000000e+01,   -4.000000e+01,    0.000000e+00
      48,    4.000000e+01,   -3.000000e+01,    0.000000e+00
      49,    4.000000e+01,   -2.000000e+01,    0.000000e+00
      50,    4.000000e+01,   -1.000000e+01,    0.000000e+00
      51,   -4.000000e+01,   -8.000000e+01,    0.000000e+00
      52,   -4.000000e+01,   -1.000000e+01,    0.000000e+00
      53,   -4.000000e+01,   -2.000000e+01,    0.000000e+00
      54,   -4.000000e+01,   -3.000000e+01,    0.000000e+00
      55,   -4.000000e+01,   -4.000000e+01,    0.000000e+00
      56,   -4.000000e+01,   -5.000000e+01,    0.000000e+00
      57,   -4.000000e+01,   -6.000000e+01,    0.000000e+00
      58,   -4.000000e+01,   -7.000000e+01,    0.000000e+00
      59,    1.000000e+01,   -8.000000e+01,    0.000000e+00
      60,    2.000000e+01,   -8.000000e+01,    0.000000e+00
      61,    3.000000e+01,   -8.000000e+01,    0.000000e+00
      62,   -3.000000e+01,   -8.000000e+01,    0.000000e+00
      63,   -2.000000e+01,   -8.000000e+01,    0.000000e+00
      64,   -1.000000e+01,   -8.000000e+01,    0.000000e+00
      65,    3.027682e+01,   -9.394255e+00,    0.000000e+00
      66,    1.254077e+01,   -5.354907e+00,    0.000000e+00
      67,    6.824511e+00,   -3.829153e+00,    0.000000e+00
      68,    4.701844e+00,   -1.955909e+00,    0.000000e+00
      69,    2.335400e+00,   -2.030691e+00,    0.000000e+00
      70,    2.799616e+00,   -4.132063e+00,    0.000000e+00
      71,    2.704971e+00,   -6.422762e+00,    0.000000e+00
      72,    2.235925e+00,   -8.528452e+00,    0.000000e+00
      73,    1.520051e+00,   -1.003047e+01,    0.000000e+00
      74,    2.253433e+00,   -1.153091e+01,    0.000000e+00
      75,    2.910072e+00,   -1.372447e+01,    0.000000e+00
      76,    2.965611e+00,   -1.616107e+01,    0.000000e+00
      77,    2.594362e+00,   -1.844611e+01,    0.000000e+00
      78,    1.709416e+00,   -2.008725e+01,    0.000000e+00
      79,    2.478564e+00,   -2.179589e+01,    0.000000e+00
      80,    2.854692e+00,   -2.407993e+01,    0.000000e+00
      81,    2.866313e+00,   -2.646101e+01,    0.000000e+00
      82,    2.645335e+00,   -2.878857e+01,    0.000000e+00
      83,    2.058601e+00,   -3.073171e+01,    0.000000e+00
      84,    1.387108e+00,   -3.213909e+01,    0.000000e+00
      85,    2.011233e+00,   -3.354898e+01,    0.000000e+00
      86,    2.634538e+00,   -3.562335e+01,    0.000000e+00
      87,    2.918357e+00,   -3.801019e+01,    0.000000e+00
      88,    2.816423e+00,   -4.044699e+01,    0.000000e+00
      89,    2.041211e+00,   -4.235223e+01,    0.000000e+00
      90,    3.307209e+00,   -4.460971e+01,    0.000000e+00
      91,    4.514335e+00,   -4.858161e+01,    0.000000e+00
      92,    6.250054e+00,   -5.394114e+01,    0.000000e+00
      93,    8.447545e+00,   -6.106518e+01,    0.000000e+00
      94,    9.483594e+00,   -7.014328e+01,    0.000000e+00
      95,    2.979486e+01,   -6.972482e+01,    0.000000e+00
      96,    2.972425e+01,   -5.937178e+01,    0.000000e+00
      97,    3.083601e+01,   -4.967687e+01,    0.000000e+00
      98,    3.097872e+01,   -4.023050e+01,    0.000000e+00
      99,    2.880764e+01,   -2.932027e+01,    0.000000e+00
     100,    3.045345e+01,   -1.885709e+01,    0.000000e+00
     101,    1.942704e+01,   -6.949261e+01,    0.000000e+00
     102,    5.879796e+00,   -7.340466e+00,    0.000000e+00
     103,    4.335074e+00,   -9.978790e+00,    0.000000e+00
     104,    6.771211e+00,   -1.284053e+01,    0.000000e+00
     105,    6.508239e+00,   -1.668805e+01,    0.000000e+00
     106,    5.586796e+00,   -2.037239e+01,    0.000000e+00
     107,    6.218498e+00,   -2.407674e+01,    0.000000e+00
     108,    5.929825e+00,   -2.713407e+01,    0.000000e+00
     109,    5.291106e+00,   -2.999633e+01,    0.000000e+00
     110,    3.845809e+00,   -3.223205e+01,    0.000000e+00
     111,    5.465129e+00,   -3.462573e+01,    0.000000e+00
     112,    6.454953e+00,   -3.799587e+01,    0.000000e+00
     113,    6.535789e+00,   -4.222225e+01,    0.000000e+00
     114,    8.767242e+00,   -4.695851e+01,    0.000000e+00
     115,    2.167682e+01,   -1.686612e+01,    0.000000e+00
     116,    1.998213e+01,   -8.688029e+00,    0.000000e+00
     117,    9.801023e+00,   -9.483996e+00,    0.000000e+00
     118,    1.355727e+01,   -1.242055e+01,    0.000000e+00
     119,    2.226254e+01,   -4.900612e+01,    0.000000e+00
     120,    2.308821e+01,   -4.130769e+01,    0.000000e+00
     121,    2.082572e+01,   -2.384052e+01,    0.000000e+00
     122,    1.758395e+01,   -2.883529e+01,    0.000000e+00
     123,    1.039465e+01,   -1.420892e+01,    0.000000e+00
     124,    1.056978e+01,   -1.734181e+01,    0.000000e+00
     125,    1.041331e+01,   -2.110837e+01,    0.000000e+00
     126,    1.001577e+01,   -2.481775e+01,    0.000000e+00
     127,    9.377303e+00,   -2.822038e+01,    0.000000e+00
     128,    8.873497e+00,   -3.226486e+01,    0.000000e+00
     129,    1.206939e+01,   -4.508281e+01,    0.000000e+00
     130,    1.199702e+01,   -5.134329e+01,    0.000000e+00
     131,    1.840389e+01,   -5.812218e+01,    0.000000e+00
     132,    1.586700e+01,   -4.690199e+01,    0.000000e+00
     133,    1.371195e+01,   -3.163278e+01,    0.000000e+00
     134,    1.235011e+01,   -2.859742e+01,    0.000000e+00
     135,    1.396108e+01,   -2.593911e+01,    0.000000e+00
     136,    1.523686e+01,   -1.703020e+01,    0.000000e+00
     137,    1.506820e+01,   -2.182832e+01,    0.000000e+00
     138,    1.554348e+01,   -3.607996e+01,    0.000000e+00
     139,    1.649480e+01,   -4.142631e+01,    0.000000e+00
     140,    1.157393e+01,   -4.138793e+01,    0.000000e+00
     141,    1.062106e+01,   -3.692361e+01,    0.000000e+00
     142,    2.135784e+01,   -3.413253e+01,    0.000000e+00
     143,   -8.676249e+00,   -7.091114e+01,    0.000000e+00
     144,   -7.093304e+00,   -6.273736e+01,    0.000000e+00
     145,   -6.009235e+00,   -5.606494e+01,    0.000000e+00
     146,   -5.351486e+00,   -5.070290e+01,    0.000000e+00
     147,   -4.779413e+00,   -4.620735e+01,    0.000000e+00
     148,   -4.300991e+00,   -4.263293e+01,    0.000000e+00
     149,   -3.907461e+00,   -3.980445e+01,    0.000000e+00
     150,   -3.479224e+00,   -3.727315e+01,    0.000000e+00
     151,   -3.119689e+00,   -3.494299e+01,    0.000000e+00
     152,   -2.711324e+00,   -3.282299e+01,    0.000000e+00
     153,   -2.134859e+00,   -3.089849e+01,    0.000000e+00
     154,   -1.300841e+00,   -2.964326e+01,    0.000000e+00
     155,   -1.767663e+00,   -2.803129e+01,    0.000000e+00
     156,   -1.818458e+00,   -2.602428e+01,    0.000000e+00
     157,   -1.722301e+00,   -2.421695e+01,    0.000000e+00
     158,   -2.038718e+00,   -2.239709e+01,    0.000000e+00
     159,   -2.441452e+00,   -2.038740e+01,    0.000000e+00
     160,   -2.730075e+00,   -1.821785e+01,    0.000000e+00
     161,   -2.895647e+00,   -1.591247e+01,    0.000000e+00
     162,   -2.684429e+00,   -1.357566e+01,    0.000000e+00
     163,   -2.001483e+00,   -1.148921e+01,    0.000000e+00
     164,   -1.309454e+00,   -1.005275e+01,    0.000000e+00
     165,   -1.926878e+00,   -8.669040e+00,    0.000000e+00
     166,   -2.368479e+00,   -6.728844e+00,    0.000000e+00
     167,   -2.542365e+00,   -4.536148e+00,    0.000000e+00
     168,   -2.491380e+00,   -2.276364e+00,    0.000000e+00
     169,   -5.417772e+00,   -2.654790e+00,    0.000000e+00
     170,   -1.382271e+01,   -4.371492e+00,    0.000000e+00
     171,   -1.971884e+01,   -6.731652e+00,    0.000000e+00
     172,   -2.852491e+01,   -1.068726e+01,    0.000000e+00
     173,   -2.786731e+01,   -6.747500e+01,    0.000000e+00
     174,   -1.760152e+01,   -7.023139e+01,    0.000000e+00
     175,   -3.109323e+01,   -2.088503e+01,    0.000000e+00
     176,   -3.036703e+01,   -3.121173e+01,    0.000000e+00
     177,   -3.232134e+01,   -4.095654e+01,    0.000000e+00
     178,   -3.269172e+01,   -4.947838e+01,    0.000000e+00
     179,   -3.167247e+01,   -5.792738e+01,    0.000000e+00
     180,   -1.430580e+01,   -6.235872e+01,    0.000000e+00
     181,   -1.207813e+01,   -5.617801e+01,    0.000000e+00
     182,   -1.081119e+01,   -5.087127e+01,    0.000000e+00
     183,   -9.847021e+00,   -4.633091e+01,    0.000000e+00
     184,   -8.932089e+00,   -4.234411e+01,    0.000000e+00
     185,   -6.255637e+00,   -3.351688e+01,    0.000000e+00
     186,   -5.360131e+00,   -3.103719e+01,    0.000000e+00
     187,   -4.029347e+00,   -2.856283e+01,    0.000000e+00
     188,   -3.733944e+00,   -2.581968e+01,    0.000000e+00
     189,   -3.144962e+00,   -2.434946e+01,    0.000000e+00
     190,   -3.978641e+00,   -2.301174e+01,    0.000000e+00
     191,   -6.134050e+00,   -1.585224e+01,    0.000000e+00
     192,   -5.948032e+00,   -1.232329e+01,    0.000000e+00
     193,   -3.681508e+00,   -1.001407e+01,    0.000000e+00
     194,   -4.683269e+00,   -7.764075e+00,    0.000000e+00
     195,   -5.320080e+00,   -5.316388e+00,    0.000000e+00
     196,   -9.141497e+00,   -3.291857e+00,    0.000000e+00
     197,   -2.082858e+01,   -5.986162e+01,    0.000000e+00
     198,   -1.741518e+01,   -5.488096e+01,    0.000000e+00
     199,   -1.603401e+01,   -5.008459e+01,    0.000000e+00
     200,   -1.493473e+01,   -4.543586e+01,    0.000000e+00
     201,   -9.329168e+00,   -3.194631e+01,    0.000000e+00
     202,   -8.429816e+00,   -2.927490e+01,    0.000000e+00
     203,   -6.974387e+00,   -2.672945e+01,    0.000000e+00
     204,   -5.565526e+00,   -2.447529e+01,    0.000000e+00
     205,   -9.657191e+00,   -1.651208e+01,    0.000000e+00
     206,   -1.004726e+01,   -1.298983e+01,    0.000000e+00
     207,   -9.809244e+00,   -1.006362e+01,    0.000000e+00
     208,   -7.226394e+00,   -9.108500e+00,    0.000000e+00
     209,   -8.449877e+00,   -6.406515e+00,    0.000000e+00
     210,   -1.194736e+01,   -7.996717e+00,    0.000000e+00
     211,   -1.546048e+01,   -1.230690e+01,    0.000000e+00
     212,   -2.123630e+01,   -1.615622e+01,    0.000000e+00
     213,   -2.396881e+01,   -2.171761e+01,    0.000000e+00
     214,   -2.316235e+01,   -2.758059e+01,    0.000000e+00
     215,   -1.983806e+01,   -3.227133e+01,    0.000000e+00
     216,   -2.614851e+01,   -4.911484e+01,    0.000000e+00
     217,   -2.500746e+01,   -5.505432e+01,    0.000000e+00
     218,   -2.553898e+01,   -4.267443e+01,    0.000000e+00
     219,   -1.600436e+01,   -3.553785e+01,    0.000000e+00
     220,   -1.364196e+01,   -1.758918e+01,    0.000000e+00
     221,   -1.740592e+01,   -1.993446e+01,    0.000000e+00
     222,   -2.010270e+01,   -2.245156e+01,    0.000000e+00
     223,   -1.857799e+01,   -2.582582e+01,    0.000000e+00
     224,   -1.609467e+01,   -2.951633e+01,    0.000000e+00
     225,   -1.373709e+01,   -3.261718e+01,    0.000000e+00
     226,   -1.350481e+01,   -4.126341e+01,    0.000000e+00
     227,   -1.818859e+01,   -3.945191e+01,    0.000000e+00
     228,   -1.985999e+01,   -4.416570e+01,    0.000000e+00
     229,   -2.090321e+01,   -4.909688e+01,    0.000000e+00
     230,   -2.110862e+01,   -5.301072e+01,    0.000000e+00
     231,   -1.513100e+01,   -2.359273e+01,    0.000000e+00
     232,   -1.225998e+01,   -2.743621e+01,    0.000000e+00
     233,   -1.185247e+01,   -3.057162e+01,    0.000000e+00
     234,   -9.652660e+00,   -2.445363e+01,    0.000000e+00
     235,   -1.189198e+01,   -2.130006e+01,    0.000000e+00
     236,   -7.986795e+00,   -3.903694e+01,    0.000000e+00
     237,   -7.056450e+00,   -3.613826e+01,    0.000000e+00
     238,   -1.204095e+01,   -3.765567e+01,    0.000000e+00
     239,   -1.060940e+01,   -3.458289e+01,    0.000000e+00
     240,   -4.865304e+00,   -2.107544e+01,    0.000000e+00
     241,   -5.598503e+00,   -1.867230e+01,    0.000000e+00
     242,   -7.199719e+00,   -2.240936e+01,    0.000000e+00
     243,   -8.657099e+00,   -1.969415e+01,    0.000000e+00
     244,   -2.339653e+01,   -3.666627e+01,    0.000000e+00
**
********************************** E L E M E N T S ****************************
*ELEMENT, TYPE=S4R, ELSET=EB1
       1,      16,      18,     143,      64
       2,      18,      19,     144,     143
       3,      19,      20,     145,     144
       4,      20,      21,     146,     145
       5,      21,      22,     147,     146
       6,      22,      23,     148,     147
       7,      23,      17,     149,     148
       8,      17,      42,     150,     149
       9,      42,      41,     151,     150
      10,      41,      40,     152,     151
      11,      40,      39,     153,     152
      12,      39,      38,     154,     153
      13,      38,      37,     155,     154
      14,      37,      36,     156,     155
      15,      36,      35,     157,     156
      16,      35,      34,     158,     157
      17,      34,      33,     159,     158
      18,      33,      32,     160,     159
      19,      32,      31,     161,     160
      20,      31,      30,     162,     161
      21,      30,      29,     163,     162
      22,      29,      28,     164,     163
      23,      28,      27,     165,     164
      24,      27,      26,     166,     165
      25,      26,      25,     167,     166
      26,      25,      24,     168,     167
      27,      24,       1,       3,     168
      28,       3,       4,     169,     168
      29,       6,       7,     171,     170
      30,       7,       8,     172,     171
      31,       8,       2,      52,     172
      32,      51,      62,     173,      58
      33,      62,      63,     174,     173
      34,      63,      64,     143,     174
      35,      52,      53,     175,     172
      36,      53,      54,     176,     175
      37,      54,      55,     177,     176
      38,      55,      56,     178,     177
      39,      56,      57,     179,     178
      40,      57,      58,     173,     179
      41,     143,     144,     180,     174
      42,     144,     145,     181,     180
      43,     145,     146,     182,     181
      44,     146,     147,     183,     182
      45,     147,     148,     184,     183
      46,     150,     151,     185,     237
      47,     151,     152,     186,     185
      48,     152,     153,     187,     186
      49,     154,     155,     187,     153
      50,     155,     156,     188,     187
      51,     156,     157,     189,     188
      52,     157,     158,     190,     189
      53,     160,     161,     191,     241
      54,     161,     162,     192,     191
      55,     162,     163,     193,     192
      56,     164,     165,     193,     163
      57,     165,     166,     194,     193
      58,     166,     167,     195,     194
      59,     167,     168,     169,     195
      60,       5,       6,     170,     196
      61,     174,     180,     197,     173
      62,     180,     181,     198,     197
      63,     181,     182,     199,     198
      64,     182,     183,     200,     199
      65,     183,     184,     226,     200
      66,     237,     185,     201,     239
      67,     185,     186,     202,     201
      68,     186,     187,     203,     202
      69,     187,     188,     204,     203
      70,     189,     190,     204,     188
      71,     241,     191,     205,     243
      72,     191,     192,     206,     205
      73,     194,     195,     209,     208
      74,     196,     170,     210,     209
      75,     170,     171,     211,     210
      76,     209,     210,     207,     208
      77,     175,     176,     214,     213
      78,     178,     179,     217,     216
      79,     179,     173,     197,     217
      80,     177,     178,     216,     218
      81,     206,     211,     220,     205
      82,     211,     212,     221,     220
      83,     212,     213,     222,     221
      84,     213,     214,     223,     222
      85,     214,     215,     224,     223
      86,     215,     219,     225,     224
      87,     218,     216,     229,     228
      88,     216,     217,     230,     229
      89,     217,     197,     198,     230
      90,     222,     223,     231,     221
      91,     223,     224,     232,     231
      92,     224,     225,     233,     232
      93,     198,     199,     229,     230
      94,     199,     200,     228,     229
      95,     200,     226,     227,     228
      96,     239,     201,     233,     225
      97,     201,     202,     232,     233
      98,     202,     203,     234,     232
      99,     243,     205,     220,     235
     100,     235,     220,     221,     231
     101,     231,     232,     234,     235
     102,     172,     212,     211,     171
     103,     148,     149,     236,     184
     104,     149,     150,     237,     236
     105,     236,     237,     239,     238
     106,     184,     236,     238,     226
     107,     226,     238,     219,     227
     108,     238,     239,     225,     219
     109,     158,     159,     240,     190
     110,     159,     160,     241,     240
     111,     240,     241,     243,     242
     112,     190,     240,     242,     204
     113,     204,     242,     234,     203
     114,     242,     243,     235,     234
     115,     194,     208,     192,     193
     116,     208,     207,     206,     192
     117,     169,       4,       5,     196
     118,     169,     196,     209,     195
     119,     212,     172,     175,     213
     120,     211,     206,     207,     210
     121,     227,     244,     218,     228
     122,     219,     215,     244,     227
     123,     215,     214,     176,     244
     124,     244,     176,     177,     218
*ELEMENT, TYPE=S4R, ELSET=EB2
     125,       9,      10,      65,      50
     126,      10,      11,     116,      65
     127,      11,      12,      66,     116
     128,      12,      13,      67,      66
     129,      13,      14,      68,      67
     130,      14,      15,      69,      68
     131,      15,       1,      24,      69
     132,      24,      25,      70,      69
     133,      25,      26,      71,      70
     134,      26,      27,      72,      71
     135,      27,      28,      73,      72
     136,      28,      29,      74,      73
     137,      29,      30,      75,      74
     138,      30,      31,      76,      75
     139,      31,      32,      77,      76
     140,      32,      33,      78,      77
     141,      33,      34,      79,      78
     142,      34,      35,      80,      79
     143,      35,      36,      81,      80
     144,      36,      37,      82,      81
     145,      37,      38,      83,      82
     146,      38,      39,      84,      83
     147,      39,      40,      85,      84
     148,      40,      41,      86,      85
     149,      41,      42,      87,      86
     150,      42,      17,      88,      87
     151,      17,      23,      89,      88
     152,      23,      22,      90,      89
     153,      22,      21,      91,      90
     154,      21,      20,      92,      91
     155,      20,      19,      93,      92
     156,      19,      18,      94,      93
     157,      18,      16,      59,      94
     158,      43,      44,      95,      61
     159,      44,      45,      96,      95
     160,      45,      46,      97,      96
     161,      46,      47,      98,      97
     162,      47,      48,      99,      98
     163,      48,      49,     100,      99
     164,      49,      50,      65,     100
     165,      59,      60,     101,      94
     166,      60,      61,      95,     101
     167,      69,      70,      67,      68
     168,      70,      71,     102,      67
     169,      71,      72,     103,     102
     170,      73,      74,     103,      72
     171,      74,      75,     104,     103
     172,      75,      76,     105,     104
     173,      76,      77,     106,     105
     174,      78,      79,     106,      77
     175,      79,      80,     107,     106
     176,      80,      81,     108,     107
     177,      81,      82,     109,     108
     178,      82,      83,     110,     109
     179,      84,      85,     110,      83
     180,      85,      86,     111,     110
     181,      86,      87,     112,     111
     182,      87,      88,     113,     112
     183,      89,      90,     113,      88
     184,      90,      91,     114,     113
     185,      91,      92,     130,     114
     186,      93,      94,     101,     131
     187,     130,      92,      93,     131
     188,      65,     116,     115,     100
     189,      66,      67,     102,     117
     190,     116,      66,     117,     118
     191,      95,      96,     131,     101
     192,      97,      98,     120,     119
     193,      98,      99,     142,     120
     194,      99,     100,     115,     121
     195,      96,      97,     119,     131
     196,     102,     103,     104,     117
     197,     117,     104,     123,     118
     198,     104,     105,     124,     123
     199,     105,     106,     125,     124
     200,     106,     107,     126,     125
     201,     107,     108,     127,     126
     202,     108,     109,     128,     127
     203,     110,     111,     128,     109
     204,     111,     112,     141,     128
     205,     112,     113,     140,     141
     206,     113,     114,     129,     140
     207,     131,     119,     132,     130
     208,     122,     135,     134,     133
     209,     142,     122,     133,     138
     210,     120,     142,     138,     139
     211,     115,     116,     118,     136
     212,     123,     124,     136,     118
     213,     139,     138,     141,     140
     214,     138,     133,     128,     141
     215,     124,     125,     137,     136
     216,     125,     126,     135,     137
     217,     127,     128,     133,     134
     218,     134,     135,     126,     127
     219,     121,     115,     136,     137
     220,     121,     137,     135,     122
     221,     120,     139,     132,     119
     222,     142,      99,     121,     122
     223,     140,     129,     132,     139
     224,     130,     132,     129,     114
**
********************************** S I D E S E T S **********************************
*ELSET, ELSET=SS1_E1
      35,      36,      37,      38,      39,      40,     158,     159,     160,     161,
     162,     163,     164
*ELSET, ELSET=SS1_E2
      31
*ELSET, ELSET=SS1_E4
      32,     125
*SURFACE, NAME=SS1
SS1_E1, E1
SS1_E2, E2
SS1_E4, E4
*ELSET, ELSET=SS2_E1
      28,      29,      30,      31,      32,      33,      34,      60,     125,     126,
     127,     128,     129,     130,     131,     165,     166
*ELSET, ELSET=SS2_E2
      27,     117,     157
*ELSET, ELSET=SS2_E4
       1,     158
*SURFACE, NAME=SS2
SS2_E1, E1
SS2_E2, E2
SS2_E4, E4
*ELSET, ELSET=SS7_E1
       8,       9,      10,      11,      12,      13,      14,      15,      16,      17,
      18,      19,      20,      21,      22,      23,      24,      25,      26,      27,
     132,     133,     134,     135,     136,     137,     138,     139,     140,     141,
     142,     143,     144,     145,     146,     147,     148,     149,     150
*ELSET, ELSET=SS7_E2
     131
*SURFACE, NAME=SS7
SS7_E1, E1
SS7_E2, E2
*ELSET, ELSET=SS8_E1
       1,       2,       3,       4,       5,       6,       7,     151,     152,     153,
     154,     155,     156,     157
*SURFACE, NAME=SS8
SS8_E1, E1
**
********************************** P R O P E R T I E S ************************
*SHELL SECTION, ELSET=EB1, SECTION INTEGRATION=SIMPSON, MATERIAL=Default-Steel
1.000000e+00
*SHELL SECTION, ELSET=EB2, SECTION INTEGRATION=SIMPSON, MATERIAL=Default-Steel
1.000000e+00
**
*END PART
**
**
**
********************************** E N D   P A R T S **********************************
**
**
********************************** A S S E M B L Y ************************************
**
*ASSEMBLY, NAME=ASSEMBLY1
**
*INSTANCE, NAME=Part-Default_1, PART=Part-Default
*END INSTANCE
**
*END ASSEMBLY
**
**
**
*MATERIAL, NAME = Default-Steel
*ELASTIC, TYPE=ISOTROPIC
2.068000e+05, 2.900000e-01
*DENSITY
7.000000e-06
*CONDUCTIVITY,TYPE=ISO
4.500000e-02
*SPECIFIC HEAT
5.000000e+02
**
**
************************************** H I S T O R Y *************************************
**
*PREPRINT
**
**************************************** S T E P 1 ***************************************
*STEP,INC=100,NAME=Default Set
**
*STATIC
1, 1, 1e-05, 1
**
**
**
**
*END STEP
