*HEADING
cubit(sers/brittanyerickson/Desktop/test_mesh/BP9_2D_30d_v1.inp): 03/12/2026: 13
version: 2024.8
**
********************************** P A R T S **********************************
*PART, NAME=Part-Default
**
********************************** N O D E S **********************************
*NODE, NSET=ALLNODES
       1,    0.000000e+00,    0.000000e+00,    0.000000e+00
       2,    3.464102e+01,   -2.000000e+01,    0.000000e+00
       3,    2.664694e+00,   -1.538462e+00,    0.000000e+00
       4,    5.329387e+00,   -3.076923e+00,    0.000000e+00
       5,    7.994081e+00,   -4.615385e+00,    0.000000e+00
       6,    1.065877e+01,   -6.153846e+00,    0.000000e+00
       7,    1.332347e+01,   -7.692308e+00,    0.000000e+00
       8,    1.598816e+01,   -9.230769e+00,    0.000000e+00
       9,    1.865285e+01,   -1.076923e+01,    0.000000e+00
      10,    2.131755e+01,   -1.230769e+01,    0.000000e+00
      11,    2.398224e+01,   -1.384615e+01,    0.000000e+00
      12,    2.664694e+01,   -1.538462e+01,    0.000000e+00
      13,    2.931163e+01,   -1.692308e+01,    0.000000e+00
      14,    3.197632e+01,   -1.846154e+01,    0.000000e+00
      15,   -8.000000e+02,    0.000000e+00,    0.000000e+00
      16,   -3.000000e+00,    0.000000e+00,    0.000000e+00
      17,   -7.910516e+00,    0.000000e+00,    0.000000e+00
      18,   -1.561349e+01,    0.000000e+00,    0.000000e+00
      19,   -2.719889e+01,    0.000000e+00,    0.000000e+00
      20,   -4.391245e+01,    0.000000e+00,    0.000000e+00
      21,   -6.704891e+01,    0.000000e+00,    0.000000e+00
      22,   -9.779100e+01,    0.000000e+00,    0.000000e+00
      23,   -1.370095e+02,    0.000000e+00,    0.000000e+00
      24,   -1.850554e+02,    0.000000e+00,    0.000000e+00
      25,   -2.415874e+02,    0.000000e+00,    0.000000e+00
      26,   -3.054796e+02,    0.000000e+00,    0.000000e+00
      27,   -3.748452e+02,    0.000000e+00,    0.000000e+00
      28,   -4.471881e+02,    0.000000e+00,    0.000000e+00
      29,   -5.196660e+02,    0.000000e+00,    0.000000e+00
      30,   -5.894193e+02,    0.000000e+00,    0.000000e+00
      31,   -6.539039e+02,    0.000000e+00,    0.000000e+00
      32,   -7.111646e+02,    0.000000e+00,    0.000000e+00
      33,   -7.600000e+02,    0.000000e+00,    0.000000e+00
      34,    8.000000e+02,    0.000000e+00,    0.000000e+00
      35,    7.600000e+02,    0.000000e+00,    0.000000e+00
      36,    7.111646e+02,    0.000000e+00,    0.000000e+00
      37,    6.539039e+02,    0.000000e+00,    0.000000e+00
      38,    5.894193e+02,    0.000000e+00,    0.000000e+00
      39,    5.196660e+02,    0.000000e+00,    0.000000e+00
      40,    4.471881e+02,    0.000000e+00,    0.000000e+00
      41,    3.748452e+02,    0.000000e+00,    0.000000e+00
      42,    3.054796e+02,    0.000000e+00,    0.000000e+00
      43,    2.415874e+02,    0.000000e+00,    0.000000e+00
      44,    1.850554e+02,    0.000000e+00,    0.000000e+00
      45,    1.370095e+02,    0.000000e+00,    0.000000e+00
      46,    9.779100e+01,    0.000000e+00,    0.000000e+00
      47,    6.704891e+01,    0.000000e+00,    0.000000e+00
      48,    4.391245e+01,    0.000000e+00,    0.000000e+00
      49,    2.719889e+01,    0.000000e+00,    0.000000e+00
      50,    1.561349e+01,    0.000000e+00,    0.000000e+00
      51,    7.910516e+00,    0.000000e+00,    0.000000e+00
      52,    3.000000e+00,    0.000000e+00,    0.000000e+00
      53,    3.464102e+02,   -2.000000e+02,    0.000000e+00
      54,    3.723909e+01,   -2.150000e+01,    0.000000e+00
      55,    4.694801e+01,   -2.710544e+01,    0.000000e+00
      56,    7.198493e+01,   -4.156052e+01,    0.000000e+00
      57,    1.189443e+02,   -6.867252e+01,    0.000000e+00
      58,    1.848488e+02,   -1.067225e+02,    0.000000e+00
      59,    2.549991e+02,   -1.472238e+02,    0.000000e+00
      60,    3.117691e+02,   -1.800000e+02,    0.000000e+00
      61,   -8.000000e+02,   -2.000000e+02,    0.000000e+00
      62,   -8.000000e+02,   -4.000000e+01,    0.000000e+00
      63,   -8.000000e+02,   -8.000000e+01,    0.000000e+00
      64,   -8.000000e+02,   -1.200000e+02,    0.000000e+00
      65,   -8.000000e+02,   -1.600000e+02,    0.000000e+00
      66,    8.000000e+02,   -2.000000e+02,    0.000000e+00
      67,    8.000000e+02,   -1.600000e+02,    0.000000e+00
      68,    8.000000e+02,   -1.200000e+02,    0.000000e+00
      69,    8.000000e+02,   -8.000000e+01,    0.000000e+00
      70,    8.000000e+02,   -4.000000e+01,    0.000000e+00
      71,   -7.604686e+02,   -2.000000e+02,    0.000000e+00
      72,   -7.209372e+02,   -2.000000e+02,    0.000000e+00
      73,   -6.814058e+02,   -2.000000e+02,    0.000000e+00
      74,   -6.418745e+02,   -2.000000e+02,    0.000000e+00
      75,   -6.023431e+02,   -2.000000e+02,    0.000000e+00
      76,   -5.628117e+02,   -2.000000e+02,    0.000000e+00
      77,   -5.232803e+02,   -2.000000e+02,    0.000000e+00
      78,   -4.837489e+02,   -2.000000e+02,    0.000000e+00
      79,   -4.442175e+02,   -2.000000e+02,    0.000000e+00
      80,   -4.046862e+02,   -2.000000e+02,    0.000000e+00
      81,   -3.651548e+02,   -2.000000e+02,    0.000000e+00
      82,   -3.256234e+02,   -2.000000e+02,    0.000000e+00
      83,   -2.860920e+02,   -2.000000e+02,    0.000000e+00
      84,   -2.465606e+02,   -2.000000e+02,    0.000000e+00
      85,   -2.070292e+02,   -2.000000e+02,    0.000000e+00
      86,   -1.674978e+02,   -2.000000e+02,    0.000000e+00
      87,   -1.279665e+02,   -2.000000e+02,    0.000000e+00
      88,   -8.843507e+01,   -2.000000e+02,    0.000000e+00
      89,   -4.890369e+01,   -2.000000e+02,    0.000000e+00
      90,   -9.372302e+00,   -2.000000e+02,    0.000000e+00
      91,    3.015908e+01,   -2.000000e+02,    0.000000e+00
      92,    6.969047e+01,   -2.000000e+02,    0.000000e+00
      93,    1.092219e+02,   -2.000000e+02,    0.000000e+00
      94,    1.487532e+02,   -2.000000e+02,    0.000000e+00
      95,    1.882846e+02,   -2.000000e+02,    0.000000e+00
      96,    2.278160e+02,   -2.000000e+02,    0.000000e+00
      97,    2.673474e+02,   -2.000000e+02,    0.000000e+00
      98,    3.068788e+02,   -2.000000e+02,    0.000000e+00
      99,    3.876456e+02,   -2.000000e+02,    0.000000e+00
     100,    4.288810e+02,   -2.000000e+02,    0.000000e+00
     101,    4.701165e+02,   -2.000000e+02,    0.000000e+00
     102,    5.113519e+02,   -2.000000e+02,    0.000000e+00
     103,    5.525874e+02,   -2.000000e+02,    0.000000e+00
     104,    5.938228e+02,   -2.000000e+02,    0.000000e+00
     105,    6.350582e+02,   -2.000000e+02,    0.000000e+00
     106,    6.762937e+02,   -2.000000e+02,    0.000000e+00
     107,    7.175291e+02,   -2.000000e+02,    0.000000e+00
     108,    7.587646e+02,   -2.000000e+02,    0.000000e+00
     109,    2.749601e+01,   -8.140748e+00,    0.000000e+00
     110,    3.447412e+01,   -1.085985e+01,    0.000000e+00
     111,    7.550210e+02,   -4.138521e+01,    0.000000e+00
     112,    7.046720e+02,   -4.361467e+01,    0.000000e+00
     113,    6.450333e+02,   -4.835043e+01,    0.000000e+00
     114,    5.795114e+02,   -5.109058e+01,    0.000000e+00
     115,    4.275616e+02,   -6.592922e+01,    0.000000e+00
     116,    3.662267e+02,   -6.066923e+01,    0.000000e+00
     117,    3.069116e+02,   -5.320543e+01,    0.000000e+00
     118,    2.471168e+02,   -4.382611e+01,    0.000000e+00
     119,    1.443413e+02,   -2.936526e+01,    0.000000e+00
     120,    7.570185e+02,   -1.614680e+02,    0.000000e+00
     121,    7.551214e+02,   -1.224446e+02,    0.000000e+00
     122,    7.537292e+02,   -8.248856e+01,    0.000000e+00
     123,    1.517945e+02,   -5.565083e+01,    0.000000e+00
     124,    1.924687e+02,   -7.137672e+01,    0.000000e+00
     125,    2.500084e+02,   -9.117962e+01,    0.000000e+00
     126,    3.074057e+02,   -1.103591e+02,    0.000000e+00
     127,    3.565841e+02,   -1.234435e+02,    0.000000e+00
     128,    4.045177e+02,   -1.308835e+02,    0.000000e+00
     129,    4.527479e+02,   -1.380911e+02,    0.000000e+00
     130,    4.937434e+02,   -1.507853e+02,    0.000000e+00
     131,    5.283037e+02,   -1.627815e+02,    0.000000e+00
     132,    5.648846e+02,   -1.660264e+02,    0.000000e+00
     133,    6.026443e+02,   -1.682348e+02,    0.000000e+00
     134,    6.374643e+02,   -1.717193e+02,    0.000000e+00
     135,    6.729365e+02,   -1.674203e+02,    0.000000e+00
     136,    7.141991e+02,   -1.635993e+02,    0.000000e+00
     137,    1.913281e+02,   -3.480033e+01,    0.000000e+00
     138,    5.428307e+02,   -1.350182e+02,    0.000000e+00
     139,    6.126784e+02,   -1.359858e+02,    0.000000e+00
     140,    6.382538e+02,   -1.473919e+02,    0.000000e+00
     141,    6.650579e+02,   -1.340202e+02,    0.000000e+00
     142,    7.096608e+02,   -1.261297e+02,    0.000000e+00
     143,    7.037182e+02,   -8.670617e+01,    0.000000e+00
     144,    6.392405e+02,   -9.899036e+01,    0.000000e+00
     145,    5.775567e+02,   -9.640921e+01,    0.000000e+00
     146,    5.260644e+02,   -1.097990e+02,    0.000000e+00
     147,    4.984712e+02,   -6.975094e+01,    0.000000e+00
     148,    5.743497e+02,   -1.329121e+02,    0.000000e+00
     149,    3.130616e+01,   -1.374859e+01,    0.000000e+00
     150,    2.796788e+01,   -1.412160e+01,    0.000000e+00
     151,    2.772550e+01,   -1.205717e+01,    0.000000e+00
     152,    2.952387e+01,   -1.490870e+01,    0.000000e+00
     153,    1.321078e+01,   -3.330535e+00,    0.000000e+00
     154,    1.077712e+01,   -3.222321e+00,    0.000000e+00
     155,    2.933630e+02,   -1.859933e+02,    0.000000e+00
     156,    2.615047e+02,   -1.780963e+02,    0.000000e+00
     157,    1.308389e+01,   -1.356847e+01,    0.000000e+00
     158,    9.707332e+00,   -1.184376e+01,    0.000000e+00
     159,    6.496027e+00,   -9.755813e+00,    0.000000e+00
     160,    4.034271e+00,   -7.317202e+00,    0.000000e+00
     161,    2.282062e+00,   -4.907081e+00,    0.000000e+00
     162,   -1.256416e+00,   -5.220908e+00,    0.000000e+00
     163,   -9.891440e+00,   -8.299503e+00,    0.000000e+00
     164,   -2.467846e+01,   -1.108747e+01,    0.000000e+00
     165,   -4.206593e+01,   -1.453780e+01,    0.000000e+00
     166,   -6.514158e+01,   -1.972508e+01,    0.000000e+00
     167,   -9.867746e+01,   -2.936338e+01,    0.000000e+00
     168,   -1.396215e+02,   -3.602700e+01,    0.000000e+00
     169,   -1.866449e+02,   -4.199136e+01,    0.000000e+00
     170,   -2.482380e+02,   -5.390327e+01,    0.000000e+00
     171,   -3.168493e+02,   -5.063801e+01,    0.000000e+00
     172,   -3.959682e+02,   -6.266421e+01,    0.000000e+00
     173,   -4.679502e+02,   -5.560139e+01,    0.000000e+00
     174,   -5.293185e+02,   -5.310664e+01,    0.000000e+00
     175,   -5.889468e+02,   -5.252029e+01,    0.000000e+00
     176,   -6.456304e+02,   -5.370164e+01,    0.000000e+00
     177,   -7.047301e+02,   -5.733277e+01,    0.000000e+00
     178,   -7.568419e+02,   -4.420114e+01,    0.000000e+00
     179,    1.662006e+01,   -1.478180e+01,    0.000000e+00
     180,    1.495096e+01,   -1.966733e+01,    0.000000e+00
     181,    9.938974e+00,   -1.866687e+01,    0.000000e+00
     182,    5.117506e+00,   -1.641683e+01,    0.000000e+00
     183,   -5.230247e+00,   -3.880912e+00,    0.000000e+00
     184,    1.983198e+01,   -1.560040e+01,    0.000000e+00
     185,    3.179984e+01,   -3.102576e+01,    0.000000e+00
     186,    2.470765e+01,   -4.437210e+01,    0.000000e+00
     187,    1.288051e+01,   -2.678328e+01,    0.000000e+00
     188,    4.954077e+00,   -2.599212e+01,    0.000000e+00
     189,   -1.841421e+00,   -2.205819e+01,    0.000000e+00
     190,   -7.057448e+00,   -1.605075e+01,    0.000000e+00
     191,   -2.005610e+01,   -2.137186e+01,    0.000000e+00
     192,   -3.660063e+01,   -2.800246e+01,    0.000000e+00
     193,   -5.701956e+01,   -3.754354e+01,    0.000000e+00
     194,   -8.952739e+01,   -6.121850e+01,    0.000000e+00
     195,   -1.364587e+02,   -7.286833e+01,    0.000000e+00
     196,   -1.795027e+02,   -8.135014e+01,    0.000000e+00
     197,   -2.207241e+02,   -9.132615e+01,    0.000000e+00
     198,   -4.913582e+02,   -1.064507e+02,    0.000000e+00
     199,   -5.421672e+02,   -1.038433e+02,    0.000000e+00
     200,   -5.918800e+02,   -1.034427e+02,    0.000000e+00
     201,   -7.622754e+02,   -8.285820e+01,    0.000000e+00
     202,   -7.298809e+02,   -8.634473e+01,    0.000000e+00
     203,   -4.425325e+02,   -1.129103e+02,    0.000000e+00
     204,   -4.061827e+02,   -1.289308e+02,    0.000000e+00
     205,    3.274579e+01,   -5.678283e+01,    0.000000e+00
     206,    2.237741e+01,   -7.895999e+01,    0.000000e+00
     207,    1.205743e+01,   -6.116065e+01,    0.000000e+00
     208,    7.285319e+00,   -4.375500e+01,    0.000000e+00
     209,   -4.652833e+00,   -3.797330e+01,    0.000000e+00
     210,   -1.346160e+01,   -3.037632e+01,    0.000000e+00
     211,    3.836160e+01,   -3.890384e+01,    0.000000e+00
     212,    5.065670e+01,   -5.000167e+01,    0.000000e+00
     213,    3.994774e+01,   -9.142949e+01,    0.000000e+00
     214,   -8.511232e+00,   -8.432943e+01,    0.000000e+00
     215,   -1.376640e+01,   -6.385435e+01,    0.000000e+00
     216,   -2.076571e+01,   -5.037910e+01,    0.000000e+00
     217,   -2.881292e+01,   -3.962848e+01,    0.000000e+00
     218,    2.139374e+02,   -1.644787e+02,    0.000000e+00
     219,    1.628851e+02,   -1.314488e+02,    0.000000e+00
     220,    1.295998e+02,   -1.248236e+02,    0.000000e+00
     221,   -7.609618e+02,   -1.599481e+02,    0.000000e+00
     222,   -7.218257e+02,   -1.584826e+02,    0.000000e+00
     223,   -6.818810e+02,   -1.548207e+02,    0.000000e+00
     224,   -6.394252e+02,   -1.531087e+02,    0.000000e+00
     225,   -5.958393e+02,   -1.524354e+02,    0.000000e+00
     226,   -5.526119e+02,   -1.524864e+02,    0.000000e+00
     227,   -5.090149e+02,   -1.536411e+02,    0.000000e+00
     228,   -4.659140e+02,   -1.564188e+02,    0.000000e+00
     229,   -4.260917e+02,   -1.623608e+02,    0.000000e+00
     230,   -3.926725e+02,   -1.692791e+02,    0.000000e+00
     231,   -3.595823e+02,   -1.686950e+02,    0.000000e+00
     232,   -3.214331e+02,   -1.663270e+02,    0.000000e+00
     233,   -2.834486e+02,   -1.653499e+02,    0.000000e+00
     234,   -2.455423e+02,   -1.650781e+02,    0.000000e+00
     235,   -2.073493e+02,   -1.624656e+02,    0.000000e+00
     236,   -1.675451e+02,   -1.586995e+02,    0.000000e+00
     237,   -8.146993e+01,   -1.621359e+02,    0.000000e+00
     238,   -4.353143e+01,   -1.631150e+02,    0.000000e+00
     239,   -6.239256e+00,   -1.613558e+02,    0.000000e+00
     240,    3.043684e+01,   -1.627930e+02,    0.000000e+00
     241,    6.566219e+01,   -1.635915e+02,    0.000000e+00
     242,    1.016656e+02,   -1.629036e+02,    0.000000e+00
     243,    1.380679e+02,   -1.625847e+02,    0.000000e+00
     244,    1.746832e+02,   -1.638308e+02,    0.000000e+00
     245,   -7.617109e+02,   -1.205042e+02,    0.000000e+00
     246,   -7.247307e+02,   -1.185733e+02,    0.000000e+00
     247,   -6.865539e+02,   -1.089690e+02,    0.000000e+00
     248,   -6.404496e+02,   -1.049056e+02,    0.000000e+00
     249,   -3.858965e+02,   -1.453900e+02,    0.000000e+00
     250,   -3.588343e+02,   -1.379600e+02,    0.000000e+00
     251,   -3.212117e+02,   -1.325788e+02,    0.000000e+00
     252,   -2.817820e+02,   -1.310545e+02,    0.000000e+00
     253,   -2.467142e+02,   -1.327474e+02,    0.000000e+00
     254,   -1.217057e+02,   -1.520447e+02,    0.000000e+00
     255,   -3.810124e+01,   -1.277226e+02,    0.000000e+00
     256,    1.042698e+00,   -1.154512e+02,    0.000000e+00
     257,    3.292049e+01,   -1.249087e+02,    0.000000e+00
     258,   -7.080067e+01,   -1.298279e+02,    0.000000e+00
     259,   -9.814816e+01,   -1.280548e+02,    0.000000e+00
     260,   -2.767303e+02,   -9.546007e+01,    0.000000e+00
     261,   -2.479337e+02,   -1.061966e+02,    0.000000e+00
     262,    6.343608e+01,   -1.278317e+02,    0.000000e+00
     263,    9.485260e+01,   -1.258212e+02,    0.000000e+00
     264,   -4.441030e+01,   -5.018379e+01,    0.000000e+00
     265,   -5.815427e+01,   -7.052468e+01,    0.000000e+00
     266,   -6.810677e+01,   -1.002832e+02,    0.000000e+00
     267,   -9.901790e+01,   -1.001974e+02,    0.000000e+00
     268,   -1.332396e+02,   -1.112950e+02,    0.000000e+00
     269,   -1.728815e+02,   -1.195582e+02,    0.000000e+00
     270,   -2.119128e+02,   -1.262566e+02,    0.000000e+00
     271,    6.173764e+01,   -9.641933e+01,    0.000000e+00
     272,    8.670778e+01,   -8.866401e+01,    0.000000e+00
     273,    5.852395e+01,   -7.655826e+01,    0.000000e+00
     274,   -3.617051e+01,   -9.638734e+01,    0.000000e+00
     275,   -3.706335e+02,   -1.052775e+02,    0.000000e+00
     276,   -3.218696e+02,   -9.534075e+01,    0.000000e+00
     277,   -3.347738e+01,   -5.781515e+01,    0.000000e+00
     278,   -3.434305e+01,   -7.244575e+01,    0.000000e+00
     279,    2.805501e+01,   -2.548120e+01,    0.000000e+00
     280,    1.972478e+01,   -1.943295e+01,    0.000000e+00
     281,    4.499277e+01,   -6.882511e+01,    0.000000e+00
     282,    6.900467e+01,   -6.410794e+01,    0.000000e+00
     283,    2.364731e+01,   -1.822128e+01,    0.000000e+00
     284,    2.552723e+01,   -2.132743e+01,    0.000000e+00
     285,    2.242353e+01,   -1.594918e+01,    0.000000e+00
     286,   -7.819140e-01,   -2.575817e+00,    0.000000e+00
     287,    1.365733e+00,   -3.009931e+00,    0.000000e+00
     288,   -3.046077e+00,   -2.130005e+00,    0.000000e+00
     289,    1.465365e+00,   -1.301549e+01,    0.000000e+00
     290,   -9.242912e-01,   -8.978907e+00,    0.000000e+00
     291,    2.019052e+01,   -2.462956e+01,    0.000000e+00
     292,    2.113467e+01,   -3.323044e+01,    0.000000e+00
**
********************************** E L E M E N T S ****************************
*ELEMENT, TYPE=S4R, ELSET=EB1
       1,     155,      98,      53,      60
       2,     156,      97,      98,     155
       3,     156,     155,      60,      59
       4,       8,       7,     158,     157
       5,       7,       6,     159,     158
       6,       6,       5,     160,     159
       7,       5,       4,     161,     160
       8,      17,      18,     163,     183
       9,      18,      19,     164,     163
      10,      19,      20,     165,     164
      11,      20,      21,     166,     165
      12,      21,      22,     167,     166
      13,      22,      23,     168,     167
      14,      23,      24,     169,     168
      15,      24,      25,     170,     169
      16,      25,      26,     171,     170
      17,      26,      27,     172,     171
      18,      27,      28,     173,     172
      19,      28,      29,     174,     173
      20,      29,      30,     175,     174
      21,      30,      31,     176,     175
      22,      31,      32,     177,     176
      23,      32,      33,     178,     177
      24,      33,      15,      62,     178
      25,       8,     157,     179,       9
      26,     157,     181,     180,     179
      27,     157,     158,     182,     181
      28,       9,     179,     184,      10
      29,     179,     180,     280,     184
      30,     180,     181,     188,     187
      31,     181,     182,     189,     188
      32,     163,     164,     191,     190
      33,     164,     165,     192,     191
      34,     165,     166,     193,     192
      35,     166,     167,     194,     193
      36,     168,     169,     196,     195
      37,     169,     170,     197,     196
      38,     171,     172,     275,     276
      39,     173,     174,     199,     198
      40,     174,     175,     200,     199
      41,     175,     176,     248,     200
      42,     176,     177,     247,     248
      43,     178,      62,      63,     201
      44,     177,     178,     201,     202
      45,     247,     177,     202,     246
      46,     172,     173,     198,     203
      47,     275,     172,     203,     204
      48,     167,     168,     195,     194
      49,     279,     185,       2,      14
      50,     186,     207,     206,     205
      51,     187,     188,     209,     208
      52,     188,     189,     210,     209
      53,     189,     190,     191,     210
      54,     185,     186,     205,     211
      55,       2,     185,     211,      54
      56,      54,     211,     212,      55
      57,     211,     205,     281,     212
      58,     205,     206,     213,     281
      59,     206,     256,     257,     213
      60,     206,     207,     214,     256
      61,     207,     208,     215,     214
      62,     208,     209,     216,     215
      63,     209,     210,     217,     216
      64,     210,     191,     192,     217
      65,      97,     156,     218,      96
      66,      96,     218,     244,      95
      67,      58,      57,     220,     219
      68,      61,      71,     221,      65
      69,      71,      72,     222,     221
      70,      72,      73,     223,     222
      71,      73,      74,     224,     223
      72,      74,      75,     225,     224
      73,      75,      76,     226,     225
      74,      76,      77,     227,     226
      75,      77,      78,     228,     227
      76,      78,      79,     229,     228
      77,      79,      80,     230,     229
      78,      80,      81,     231,     230
      79,      81,      82,     232,     231
      80,      82,      83,     233,     232
      81,      83,      84,     234,     233
      82,      84,      85,     235,     234
      83,      85,      86,     236,     235
      84,      86,      87,     254,     236
      85,      87,      88,     237,     254
      86,      88,      89,     238,     237
      87,      89,      90,     239,     238
      88,      90,      91,     240,     239
      89,      91,      92,     241,     240
      90,      92,      93,     242,     241
      91,      93,      94,     243,     242
      92,      94,      95,     244,     243
      93,      63,      64,     245,     201
      94,      64,      65,     221,     245
      95,     244,     219,     220,     243
      96,     221,     222,     246,     245
      97,     222,     223,     247,     246
      98,     223,     224,     248,     247
      99,     224,     225,     200,     248
     100,     246,     202,     201,     245
     101,     225,     226,     199,     200
     102,     226,     227,     198,     199
     103,     227,     228,     203,     198
     104,     228,     229,     204,     203
     105,     229,     230,     249,     204
     106,     230,     231,     250,     249
     107,     231,     232,     251,     250
     108,     232,     233,     252,     251
     109,     233,     234,     253,     252
     110,     234,     235,     270,     253
     111,     235,     236,     269,     270
     112,     236,     254,     268,     269
     113,     238,     239,     256,     255
     114,     239,     240,     257,     256
     115,     237,     238,     255,     258
     116,     254,     237,     258,     259
     117,     170,     171,     276,     260
     118,     197,     170,     260,     261
     119,     240,     241,     262,     257
     120,     241,     242,     263,     262
     121,     242,     243,     220,     263
     122,     192,     193,     264,     217
     123,     193,     194,     265,     264
     124,     194,     195,     268,     267
     125,     195,     196,     269,     268
     126,     196,     197,     270,     269
     127,     257,     262,     271,     213
     128,     262,     263,     272,     271
     129,     263,     220,      57,     272
     130,      57,      56,     282,     272
     131,      56,      55,     212,     282
     132,     268,     254,     259,     267
     133,     259,     258,     266,     267
     134,     258,     255,     274,     266
     135,     255,     256,     214,     274
     136,     204,     249,     250,     275
     137,     250,     251,     276,     275
     138,     197,     261,     253,     270
     139,     217,     264,     277,     216
     140,     264,     265,     278,     277
     141,     265,     266,     274,     278
     142,     260,     276,     251,     252
     143,     252,     253,     261,     260
     144,     278,     274,     214,     215
     145,     215,     216,     277,     278
     146,     194,     267,     266,     265
     147,     212,     281,     273,     282
     148,     281,     213,     271,     273
     149,     273,     271,     272,     282
     150,      12,     283,     284,      13
     151,      13,     284,     279,      14
     152,      11,      10,     184,     285
     153,      12,      11,     285,     283
     154,     283,     285,     184,     280
     155,       1,     286,     287,       3
     156,       3,     287,     161,       4
     157,      16,      17,     183,     288
     158,       1,      16,     288,     286
     159,     286,     162,     161,     287
     160,     286,     288,     183,     162
     161,     182,     158,     159,     289
     162,     289,     159,     160,     290
     163,     290,     160,     161,     162
     164,     189,     182,     289,     190
     165,     190,     289,     290,     163
     166,     163,     290,     162,     183
     167,     280,     291,     284,     283
     168,     291,     292,     279,     284
     169,     292,     186,     185,     279
     170,     291,     280,     180,     187
     171,     292,     291,     187,     208
     172,     186,     292,     208,     207
     173,      58,     219,     244,     218
     174,      58,     218,     156,      59
*ELEMENT, TYPE=S4R, ELSET=EB2
     175,       5,      51,      52,       4
     176,       8,       9,      49,      50
     177,       9,      10,     109,      49
     178,       2,      54,      48,     110
     179,      54,      55,      47,      48
     180,      55,      56,      46,      47
     181,      48,      49,     109,     110
     182,      34,      35,     111,      70
     183,      35,      36,     112,     111
     184,      36,      37,     113,     112
     185,      37,      38,     114,     113
     186,      38,      39,     147,     114
     187,      39,      40,     115,     147
     188,      40,      41,     116,     115
     189,      41,      42,     117,     116
     190,      42,      43,     118,     117
     191,      43,      44,     137,     118
     192,      44,      45,     119,     137
     193,      45,      46,      56,     119
     194,      66,      67,     120,     108
     195,      67,      68,     121,     120
     196,      68,      69,     122,     121
     197,      69,      70,     111,     122
     198,      56,      57,     123,     119
     199,      57,      58,     124,     123
     200,      58,      59,     125,     124
     201,      59,      60,     126,     125
     202,      60,      53,     127,     126
     203,      53,      99,     128,     127
     204,      99,     100,     129,     128
     205,     100,     101,     130,     129
     206,     101,     102,     131,     130
     207,     102,     103,     132,     131
     208,     103,     104,     133,     132
     209,     104,     105,     134,     133
     210,     105,     106,     135,     134
     211,     106,     107,     136,     135
     212,     107,     108,     120,     136
     213,     119,     123,     124,     137
     214,     124,     125,     118,     137
     215,     125,     126,     117,     118
     216,     126,     127,     116,     117
     217,     127,     128,     115,     116
     218,     128,     129,     147,     115
     219,     129,     130,     146,     147
     220,     130,     131,     138,     146
     221,     131,     132,     148,     138
     222,     132,     133,     139,     148
     223,     133,     134,     140,     139
     224,     134,     135,     141,     140
     225,     135,     136,     142,     141
     226,     136,     120,     121,     142
     227,     121,     122,     143,     142
     228,     122,     111,     112,     143
     229,     112,     113,     144,     143
     230,     113,     114,     145,     144
     231,     114,     147,     146,     145
     232,     146,     138,     148,     145
     233,     145,     148,     139,     144
     234,     141,     142,     143,     144
     235,     144,     139,     140,     141
     236,     149,      14,       2,     110
     237,     109,     151,     149,     110
     238,      12,     150,     151,      11
     239,      11,     151,     109,      10
     240,      13,      14,     149,     152
     241,      12,      13,     152,     150
     242,     150,     152,     149,     151
     243,       8,      50,     153,       7
     244,      50,      51,     154,     153
     245,      51,       5,       6,     154
     246,       6,       7,     153,     154
     247,       3,       4,      52,       1
**
********************************** S I D E S E T S **********************************
*ELSET, ELSET=SS1_E1
      93,      94,     194,     195,     196,     197
*ELSET, ELSET=SS1_E2
      24,      43
*ELSET, ELSET=SS1_E4
      68,     182
*SURFACE, NAME=SS1
SS1_E1, E1
SS1_E2, E2
SS1_E4, E4
*ELSET, ELSET=SS2_E1
       8,       9,      10,      11,      12,      13,      14,      15,      16,      17,
      18,      19,      20,      21,      22,      23,      24,      68,      69,      70,
      71,      72,      73,      74,      75,      76,      77,      78,      79,      80,
      81,      82,      83,      84,      85,      86,      87,      88,      89,      90,
      91,      92,     157,     158,     181,     182,     183,     184,     185,     186,
     187,     188,     189,     190,     191,     192,     193,     203,     204,     205,
     206,     207,     208,     209,     210,     211,     212,     244
*ELSET, ELSET=SS2_E2
       1,       2,     175
*ELSET, ELSET=SS2_E3
     176,     179,     180,     247
*ELSET, ELSET=SS2_E4
      65,      66,     194
*SURFACE, NAME=SS2
SS2_E1, E1
SS2_E2, E2
SS2_E3, E3
SS2_E4, E4
*ELSET, ELSET=SS7_E1
       4,       5,       6,       7,     152,     153,     176,     177,     240,     241,
     246,     247
*ELSET, ELSET=SS7_E2
     236,     245
*ELSET, ELSET=SS7_E3
      49
*ELSET, ELSET=SS7_E4
      25,      28,     150,     151,     155,     156,     175,     238,     239,     243,
     247
*SURFACE, NAME=SS7
SS7_E1, E1
SS7_E2, E2
SS7_E3, E3
SS7_E4, E4
*ELSET, ELSET=SS8_E1
      67,     130,     131,     178,     179,     180,     198,     199,     200,     201,
     202
*ELSET, ELSET=SS8_E3
       1,       3
*ELSET, ELSET=SS8_E4
      55,      56,     174
*SURFACE, NAME=SS8
SS8_E1, E1
SS8_E3, E3
SS8_E4, E4
**
********************************** P R O P E R T I E S ************************
*SHELL SECTION, ELSET=EB1, SECTION INTEGRATION=SIMPSON, MATERIAL=Default-Steel
1.000000e+00
*SHELL SECTION, ELSET=EB2, SECTION INTEGRATION=SIMPSON, MATERIAL=Default-Steel
1.000000e+00
**
*END PART
**
**
**
********************************** E N D   P A R T S **********************************
**
**
********************************** A S S E M B L Y ************************************
**
*ASSEMBLY, NAME=ASSEMBLY1
**
*INSTANCE, NAME=Part-Default_1, PART=Part-Default
*END INSTANCE
**
*END ASSEMBLY
**
**
**
*MATERIAL, NAME = Default-Steel
*ELASTIC, TYPE=ISOTROPIC
2.068000e+05, 2.900000e-01
*DENSITY
7.000000e-06
*CONDUCTIVITY,TYPE=ISO
4.500000e-02
*SPECIFIC HEAT
5.000000e+02
**
**
************************************** H I S T O R Y *************************************
**
*PREPRINT
**
**************************************** S T E P 1 ***************************************
*STEP,INC=100,NAME=Default Set
**
*STATIC
1, 1, 1e-05, 1
**
**
**
**
*END STEP
