*HEADING
cubit(sers/brittanyerickson/Desktop/test_mesh/BP9_2D_90d_v4.inp): 04/02/2026: 13
version: 2024.8
**
********************************** P A R T S **********************************
*PART, NAME=Part-Default
**
********************************** N O D E S **********************************
*NODE, NSET=ALLNODES
       1,   -1.600000e+02,    0.000000e+00,    0.000000e+00
       2,   -1.600000e+02,   -8.000000e+01,    0.000000e+00
       3,   -1.600000e+02,   -4.000000e+01,    0.000000e+00
       4,    1.600000e+02,   -8.000000e+01,    0.000000e+00
       5,    1.600000e+02,    0.000000e+00,    0.000000e+00
       6,    1.600000e+02,   -4.000000e+01,    0.000000e+00
       7,    0.000000e+00,   -4.000000e+01,    0.000000e+00
       8,    0.000000e+00,   -8.000000e+01,    0.000000e+00
       9,    0.000000e+00,    0.000000e+00,    0.000000e+00
      10,   -8.000000e+01,    0.000000e+00,    0.000000e+00
      11,   -8.000000e+01,   -8.000000e+01,    0.000000e+00
      12,    8.000000e+01,   -8.000000e+01,    0.000000e+00
      13,    8.000000e+01,    0.000000e+00,    0.000000e+00
      14,    8.000000e+01,   -4.000000e+01,    0.000000e+00
      15,   -8.000000e+01,   -4.000000e+01,    0.000000e+00
**
********************************** E L E M E N T S ****************************
*ELEMENT, TYPE=S4R, ELSET=EB1
       1,       8,       7,      15,      11
       2,       7,       9,      10,      15
       3,      11,      15,       3,       2
       4,      15,      10,       1,       3
*ELEMENT, TYPE=S4R, ELSET=EB2
       5,       8,      12,      14,       7
       6,      12,       4,       6,      14
       7,       7,      14,      13,       9
       8,      14,       6,       5,      13
**
********************************** S I D E S E T S **********************************
*ELSET, ELSET=SS1_E2
       6,       8
*ELSET, ELSET=SS1_E3
       3,       4
*SURFACE, NAME=SS1
SS1_E2, E2
SS1_E3, E3
*ELSET, ELSET=SS2_E1
       5,       6
*ELSET, ELSET=SS2_E2
       2,       4
*ELSET, ELSET=SS2_E3
       7,       8
*ELSET, ELSET=SS2_E4
       1,       3
*SURFACE, NAME=SS2
SS2_E1, E1
SS2_E2, E2
SS2_E3, E3
SS2_E4, E4
*ELSET, ELSET=SS7_E1
       2
*ELSET, ELSET=SS7_E4
       7
*SURFACE, NAME=SS7
SS7_E1, E1
SS7_E4, E4
*ELSET, ELSET=SS8_E1
       1
*ELSET, ELSET=SS8_E4
       5
*SURFACE, NAME=SS8
SS8_E1, E1
SS8_E4, E4
**
********************************** P R O P E R T I E S ************************
*SHELL SECTION, ELSET=EB1, SECTION INTEGRATION=SIMPSON, MATERIAL=Default-Steel
1.000000e+00
*SHELL SECTION, ELSET=EB2, SECTION INTEGRATION=SIMPSON, MATERIAL=Default-Steel
1.000000e+00
**
*END PART
**
**
**
********************************** E N D   P A R T S **********************************
**
**
********************************** A S S E M B L Y ************************************
**
*ASSEMBLY, NAME=ASSEMBLY1
**
*INSTANCE, NAME=Part-Default_1, PART=Part-Default
*END INSTANCE
**
*END ASSEMBLY
**
**
**
*MATERIAL, NAME = Default-Steel
*ELASTIC, TYPE=ISOTROPIC
2.068000e+05, 2.900000e-01
*DENSITY
7.000000e-06
*CONDUCTIVITY,TYPE=ISO
4.500000e-02
*SPECIFIC HEAT
5.000000e+02
**
**
************************************** H I S T O R Y *************************************
**
*PREPRINT
**
**************************************** S T E P 1 ***************************************
*STEP,INC=100,NAME=Default Set
**
*STATIC
1, 1, 1e-05, 1
**
**
**
**
*END STEP
