*HEADING
cubit(sers/brittanyerickson/Desktop/test_mesh/BP9_2D_90d_v2.inp): 05/11/2026: 21
version: 2024.8
**
********************************** P A R T S **********************************
*PART, NAME=Part-Default
**
********************************** N O D E S **********************************
*NODE, NSET=ALLNODES
       1,    0.000000e+00,    0.000000e+00,    0.000000e+00
       2,    0.000000e+00,   -4.000000e+01,    0.000000e+00
       3,    0.000000e+00,   -5.000000e+00,    0.000000e+00
       4,    0.000000e+00,   -1.000000e+01,    0.000000e+00
       5,    0.000000e+00,   -1.500000e+01,    0.000000e+00
       6,    0.000000e+00,   -2.000000e+01,    0.000000e+00
       7,    0.000000e+00,   -2.500000e+01,    0.000000e+00
       8,    0.000000e+00,   -3.000000e+01,    0.000000e+00
       9,    0.000000e+00,   -3.500000e+01,    0.000000e+00
      10,   -3.000000e+01,    0.000000e+00,    0.000000e+00
      11,   -5.000000e+00,    0.000000e+00,    0.000000e+00
      12,   -9.257484e+00,    0.000000e+00,    0.000000e+00
      13,   -1.312640e+01,    0.000000e+00,    0.000000e+00
      14,   -1.687342e+01,    0.000000e+00,    0.000000e+00
      15,   -2.074227e+01,    0.000000e+00,    0.000000e+00
      16,   -2.500000e+01,    0.000000e+00,    0.000000e+00
      17,    3.000000e+01,    0.000000e+00,    0.000000e+00
      18,    2.500000e+01,    0.000000e+00,    0.000000e+00
      19,    2.074227e+01,    0.000000e+00,    0.000000e+00
      20,    1.687342e+01,    0.000000e+00,    0.000000e+00
      21,    1.312640e+01,    0.000000e+00,    0.000000e+00
      22,    9.257484e+00,    0.000000e+00,    0.000000e+00
      23,    5.000000e+00,    0.000000e+00,    0.000000e+00
      24,    0.000000e+00,   -6.000000e+01,    0.000000e+00
      25,    0.000000e+00,   -4.500000e+01,    0.000000e+00
      26,    0.000000e+00,   -4.846608e+01,    0.000000e+00
      27,    0.000000e+00,   -5.153519e+01,    0.000000e+00
      28,    0.000000e+00,   -5.500000e+01,    0.000000e+00
      29,   -3.000000e+01,   -6.000000e+01,    0.000000e+00
      30,   -3.000000e+01,   -5.000000e+00,    0.000000e+00
      31,   -3.000000e+01,   -1.000000e+01,    0.000000e+00
      32,   -3.000000e+01,   -1.500000e+01,    0.000000e+00
      33,   -3.000000e+01,   -2.000000e+01,    0.000000e+00
      34,   -3.000000e+01,   -2.500000e+01,    0.000000e+00
      35,   -3.000000e+01,   -3.000000e+01,    0.000000e+00
      36,   -3.000000e+01,   -3.500000e+01,    0.000000e+00
      37,   -3.000000e+01,   -4.000000e+01,    0.000000e+00
      38,   -3.000000e+01,   -4.500000e+01,    0.000000e+00
      39,   -3.000000e+01,   -5.000000e+01,    0.000000e+00
      40,   -3.000000e+01,   -5.500000e+01,    0.000000e+00
      41,    3.000000e+01,   -6.000000e+01,    0.000000e+00
      42,    3.000000e+01,   -5.500000e+01,    0.000000e+00
      43,    3.000000e+01,   -5.000000e+01,    0.000000e+00
      44,    3.000000e+01,   -4.500000e+01,    0.000000e+00
      45,    3.000000e+01,   -4.000000e+01,    0.000000e+00
      46,    3.000000e+01,   -3.500000e+01,    0.000000e+00
      47,    3.000000e+01,   -3.000000e+01,    0.000000e+00
      48,    3.000000e+01,   -2.500000e+01,    0.000000e+00
      49,    3.000000e+01,   -2.000000e+01,    0.000000e+00
      50,    3.000000e+01,   -1.500000e+01,    0.000000e+00
      51,    3.000000e+01,   -1.000000e+01,    0.000000e+00
      52,    3.000000e+01,   -5.000000e+00,    0.000000e+00
      53,   -2.500000e+01,   -6.000000e+01,    0.000000e+00
      54,   -2.000000e+01,   -6.000000e+01,    0.000000e+00
      55,   -1.500000e+01,   -6.000000e+01,    0.000000e+00
      56,   -1.000000e+01,   -6.000000e+01,    0.000000e+00
      57,   -5.000000e+00,   -6.000000e+01,    0.000000e+00
      58,    5.000000e+00,   -6.000000e+01,    0.000000e+00
      59,    1.000000e+01,   -6.000000e+01,    0.000000e+00
      60,    1.500000e+01,   -6.000000e+01,    0.000000e+00
      61,    2.000000e+01,   -6.000000e+01,    0.000000e+00
      62,    2.500000e+01,   -6.000000e+01,    0.000000e+00
      63,    4.708763e+00,   -4.929616e+00,    0.000000e+00
      64,    4.688866e+00,   -9.952173e+00,    0.000000e+00
      65,    4.800724e+00,   -1.504211e+01,    0.000000e+00
      66,    4.975100e+00,   -2.019408e+01,    0.000000e+00
      67,    4.997242e+00,   -2.536538e+01,    0.000000e+00
      68,    4.938263e+00,   -3.049702e+01,    0.000000e+00
      69,    4.819145e+00,   -3.556135e+01,    0.000000e+00
      70,    4.583844e+00,   -4.045907e+01,    0.000000e+00
      71,    4.099024e+00,   -4.481043e+01,    0.000000e+00
      72,    3.689223e+00,   -4.831700e+01,    0.000000e+00
      73,    4.071868e+00,   -5.164248e+01,    0.000000e+00
      74,    4.554798e+00,   -5.548011e+01,    0.000000e+00
      75,    2.546437e+01,   -4.745093e+00,    0.000000e+00
      76,    2.122843e+01,   -4.585071e+00,    0.000000e+00
      77,    1.724450e+01,   -4.584742e+00,    0.000000e+00
      78,    1.328181e+01,   -4.711558e+00,    0.000000e+00
      79,    9.112861e+00,   -4.859324e+00,    0.000000e+00
      80,    9.181862e+00,   -5.527685e+01,    0.000000e+00
      81,    1.417817e+01,   -5.463688e+01,    0.000000e+00
      82,    1.948854e+01,   -5.466020e+01,    0.000000e+00
      83,    2.476998e+01,   -5.482177e+01,    0.000000e+00
      84,    2.460370e+01,   -4.959865e+01,    0.000000e+00
      85,    2.468560e+01,   -4.439273e+01,    0.000000e+00
      86,    2.482344e+01,   -3.922364e+01,    0.000000e+00
      87,    2.494585e+01,   -3.407784e+01,    0.000000e+00
      88,    2.507320e+01,   -2.897017e+01,    0.000000e+00
      89,    2.527081e+01,   -2.393255e+01,    0.000000e+00
      90,    2.563137e+01,   -1.907050e+01,    0.000000e+00
      91,    2.572158e+01,   -1.426650e+01,    0.000000e+00
      92,    2.567194e+01,   -9.497664e+00,    0.000000e+00
      93,    9.230572e+00,   -9.820943e+00,    0.000000e+00
      94,    9.481398e+00,   -1.491592e+01,    0.000000e+00
      95,    1.001160e+01,   -2.033722e+01,    0.000000e+00
      96,    1.003192e+01,   -2.579096e+01,    0.000000e+00
      97,    9.902657e+00,   -3.113682e+01,    0.000000e+00
      98,    9.661784e+00,   -3.635820e+01,    0.000000e+00
      99,    9.106843e+00,   -4.125076e+01,    0.000000e+00
     100,    8.175256e+00,   -4.556303e+01,    0.000000e+00
     101,    6.670941e+00,   -4.833574e+01,    0.000000e+00
     102,    8.114805e+00,   -5.111371e+01,    0.000000e+00
     103,    2.152349e+01,   -9.180551e+00,    0.000000e+00
     104,    1.752220e+01,   -9.273242e+00,    0.000000e+00
     105,    1.348796e+01,   -9.552401e+00,    0.000000e+00
     106,    1.910287e+01,   -4.918407e+01,    0.000000e+00
     107,    1.937126e+01,   -4.372860e+01,    0.000000e+00
     108,    1.967599e+01,   -3.836863e+01,    0.000000e+00
     109,    1.991293e+01,   -3.306849e+01,    0.000000e+00
     110,    2.014647e+01,   -2.780654e+01,    0.000000e+00
     111,    2.148951e+01,   -1.809662e+01,    0.000000e+00
     112,    2.166615e+01,   -1.382290e+01,    0.000000e+00
     113,    1.271196e+01,   -4.859515e+01,    0.000000e+00
     114,    1.396399e+01,   -1.454643e+01,    0.000000e+00
     115,    1.539936e+01,   -2.030521e+01,    0.000000e+00
     116,    2.051987e+01,   -2.253823e+01,    0.000000e+00
     117,    1.490145e+01,   -3.201094e+01,    0.000000e+00
     118,    1.458078e+01,   -3.740424e+01,    0.000000e+00
     119,    1.398933e+01,   -4.274903e+01,    0.000000e+00
     120,    1.783982e+01,   -1.371303e+01,    0.000000e+00
     121,    1.824290e+01,   -1.737162e+01,    0.000000e+00
     122,    1.511505e+01,   -2.651665e+01,    0.000000e+00
     123,   -4.800682e+00,   -5.543186e+01,    0.000000e+00
     124,   -4.738539e+00,   -5.148101e+01,    0.000000e+00
     125,   -4.655380e+00,   -4.768619e+01,    0.000000e+00
     126,   -4.660267e+00,   -4.363887e+01,    0.000000e+00
     127,   -4.633505e+00,   -3.903295e+01,    0.000000e+00
     128,   -4.526327e+00,   -3.429030e+01,    0.000000e+00
     129,   -4.393475e+00,   -2.959372e+01,    0.000000e+00
     130,   -4.582311e+00,   -2.485738e+01,    0.000000e+00
     131,   -4.779940e+00,   -1.995961e+01,    0.000000e+00
     132,   -4.872349e+00,   -1.491793e+01,    0.000000e+00
     133,   -4.798721e+00,   -9.875172e+00,    0.000000e+00
     134,   -4.753548e+00,   -4.917235e+00,    0.000000e+00
     135,   -9.197045e+00,   -4.839482e+00,    0.000000e+00
     136,   -1.331005e+01,   -4.683055e+00,    0.000000e+00
     137,   -1.719256e+01,   -4.428714e+00,    0.000000e+00
     138,   -2.116615e+01,   -4.478341e+00,    0.000000e+00
     139,   -2.544625e+01,   -4.710321e+00,    0.000000e+00
     140,   -2.485131e+01,   -5.508761e+01,    0.000000e+00
     141,   -1.969844e+01,   -5.518661e+01,    0.000000e+00
     142,   -1.471966e+01,   -5.536184e+01,    0.000000e+00
     143,   -9.725459e+00,   -5.547447e+01,    0.000000e+00
     144,   -2.556441e+01,   -9.423817e+00,    0.000000e+00
     145,   -2.543439e+01,   -1.419658e+01,    0.000000e+00
     146,   -2.499556e+01,   -1.907908e+01,    0.000000e+00
     147,   -2.463055e+01,   -2.421370e+01,    0.000000e+00
     148,   -2.433168e+01,   -2.963707e+01,    0.000000e+00
     149,   -2.447167e+01,   -3.501472e+01,    0.000000e+00
     150,   -2.454485e+01,   -4.020925e+01,    0.000000e+00
     151,   -2.458605e+01,   -4.523808e+01,    0.000000e+00
     152,   -2.470913e+01,   -5.017692e+01,    0.000000e+00
     153,   -9.505292e+00,   -5.116831e+01,    0.000000e+00
     154,   -9.446360e+00,   -4.697005e+01,    0.000000e+00
     155,   -9.357962e+00,   -4.266734e+01,    0.000000e+00
     156,   -9.284061e+00,   -3.808113e+01,    0.000000e+00
     157,   -8.944405e+00,   -3.348582e+01,    0.000000e+00
     158,   -8.592834e+00,   -2.926296e+01,    0.000000e+00
     159,   -9.040243e+00,   -2.509814e+01,    0.000000e+00
     160,   -9.597115e+00,   -2.019565e+01,    0.000000e+00
     161,   -9.783373e+00,   -1.497296e+01,    0.000000e+00
     162,   -9.392046e+00,   -9.805577e+00,    0.000000e+00
     163,   -1.372573e+01,   -9.456683e+00,    0.000000e+00
     164,   -1.755989e+01,   -8.831996e+00,    0.000000e+00
     165,   -2.138090e+01,   -8.972396e+00,    0.000000e+00
     166,   -2.124116e+01,   -1.325887e+01,    0.000000e+00
     167,   -2.008507e+01,   -1.763411e+01,    0.000000e+00
     168,   -1.931584e+01,   -2.302556e+01,    0.000000e+00
     169,   -1.794037e+01,   -2.931415e+01,    0.000000e+00
     170,   -1.942801e+01,   -4.566702e+01,    0.000000e+00
     171,   -1.952997e+01,   -5.043942e+01,    0.000000e+00
     172,   -1.445328e+01,   -5.078812e+01,    0.000000e+00
     173,   -1.434852e+01,   -4.627768e+01,    0.000000e+00
     174,   -1.422994e+01,   -4.166320e+01,    0.000000e+00
     175,   -1.925772e+01,   -4.070259e+01,    0.000000e+00
     176,   -1.325246e+01,   -3.241676e+01,    0.000000e+00
     177,   -1.177618e+01,   -2.921209e+01,    0.000000e+00
     178,   -1.337181e+01,   -2.601999e+01,    0.000000e+00
     179,   -1.439339e+01,   -2.109645e+01,    0.000000e+00
     180,   -1.791699e+01,   -1.238132e+01,    0.000000e+00
     181,   -1.502599e+01,   -1.516978e+01,    0.000000e+00
     182,   -1.393469e+01,   -3.697144e+01,    0.000000e+00
     183,   -1.895942e+01,   -3.552153e+01,    0.000000e+00
**
********************************** E L E M E N T S ****************************
*ELEMENT, TYPE=S4R, ELSET=EB1
       1,      24,      28,     123,      57
       2,      28,      27,     124,     123
       3,      27,      26,     125,     124
       4,      26,      25,     126,     125
       5,      25,       2,     127,     126
       6,       2,       9,     128,     127
       7,       9,       8,     129,     128
       8,       8,       7,     130,     129
       9,       7,       6,     131,     130
      10,       6,       5,     132,     131
      11,       5,       4,     133,     132
      12,       4,       3,     134,     133
      13,       3,       1,      11,     134
      14,      11,      12,     135,     134
      15,      12,      13,     136,     135
      16,      13,      14,     137,     136
      17,      14,      15,     138,     137
      18,      15,      16,     139,     138
      19,      16,      10,      30,     139
      20,      29,      53,     140,      40
      21,      53,      54,     141,     140
      22,      54,      55,     142,     141
      23,      55,      56,     143,     142
      24,      56,      57,     123,     143
      25,      30,      31,     144,     139
      26,      31,      32,     145,     144
      27,      32,      33,     146,     145
      28,      33,      34,     147,     146
      29,      34,      35,     148,     147
      30,      35,      36,     149,     148
      31,      36,      37,     150,     149
      32,      37,      38,     151,     150
      33,      38,      39,     152,     151
      34,      39,      40,     140,     152
      35,     123,     124,     153,     143
      36,     124,     125,     154,     153
      37,     125,     126,     155,     154
      38,     126,     127,     156,     155
      39,     127,     128,     157,     156
      40,     128,     129,     158,     157
      41,     129,     130,     159,     158
      42,     130,     131,     160,     159
      43,     131,     132,     161,     160
      44,     132,     133,     162,     161
      45,     133,     134,     135,     162
      46,     135,     136,     163,     162
      47,     136,     137,     164,     163
      48,     137,     138,     165,     164
      49,     138,     139,     144,     165
      50,     144,     145,     166,     165
      51,     145,     146,     167,     166
      52,     146,     147,     168,     167
      53,     147,     148,     169,     168
      54,     148,     149,     183,     169
      55,     149,     150,     175,     183
      56,     150,     151,     170,     175
      57,     151,     152,     171,     170
      58,     152,     140,     141,     171
      59,     141,     142,     172,     171
      60,     142,     143,     153,     172
      61,     153,     154,     173,     172
      62,     154,     155,     174,     173
      63,     155,     156,     182,     174
      64,     156,     157,     176,     182
      65,     157,     158,     177,     176
      66,     158,     159,     178,     177
      67,     159,     160,     179,     178
      68,     160,     161,     181,     179
      69,     161,     162,     163,     181
      70,     163,     164,     180,     181
      71,     164,     165,     166,     180
      72,     166,     167,     181,     180
      73,     167,     168,     179,     181
      74,     168,     169,     178,     179
      75,     169,     176,     177,     178
      76,     170,     171,     172,     173
      77,     173,     174,     175,     170
      78,     175,     174,     182,     183
      79,     183,     182,     176,     169
*ELEMENT, TYPE=S4R, ELSET=EB2
      80,       1,       3,      63,      23
      81,       3,       4,      64,      63
      82,       4,       5,      65,      64
      83,       5,       6,      66,      65
      84,       6,       7,      67,      66
      85,       7,       8,      68,      67
      86,       8,       9,      69,      68
      87,       9,       2,      70,      69
      88,       2,      25,      71,      70
      89,      25,      26,      72,      71
      90,      26,      27,      73,      72
      91,      27,      28,      74,      73
      92,      28,      24,      58,      74
      93,      17,      18,      75,      52
      94,      18,      19,      76,      75
      95,      19,      20,      77,      76
      96,      20,      21,      78,      77
      97,      21,      22,      79,      78
      98,      22,      23,      63,      79
      99,      58,      59,      80,      74
     100,      59,      60,      81,      80
     101,      60,      61,      82,      81
     102,      61,      62,      83,      82
     103,      62,      41,      42,      83
     104,      42,      43,      84,      83
     105,      43,      44,      85,      84
     106,      44,      45,      86,      85
     107,      45,      46,      87,      86
     108,      46,      47,      88,      87
     109,      47,      48,      89,      88
     110,      48,      49,      90,      89
     111,      49,      50,      91,      90
     112,      50,      51,      92,      91
     113,      51,      52,      75,      92
     114,      63,      64,      93,      79
     115,      64,      65,      94,      93
     116,      65,      66,      95,      94
     117,      66,      67,      96,      95
     118,      67,      68,      97,      96
     119,      68,      69,      98,      97
     120,      69,      70,      99,      98
     121,      70,      71,     100,      99
     122,      71,      72,     101,     100
     123,      72,      73,     102,     101
     124,      73,      74,      80,     102
     125,      75,      76,     103,      92
     126,      76,      77,     104,     103
     127,      77,      78,     105,     104
     128,      78,      79,      93,     105
     129,      83,      84,     106,      82
     130,      84,      85,     107,     106
     131,      85,      86,     108,     107
     132,      86,      87,     109,     108
     133,      87,      88,     110,     109
     134,      88,      89,     116,     110
     135,      89,      90,     111,     116
     136,      90,      91,     112,     111
     137,      91,      92,     103,     112
     138,      80,      81,     113,     102
     139,      81,      82,     106,     113
     140,      93,      94,     114,     105
     141,      94,      95,     115,     114
     142,      97,      98,     118,     117
     143,      98,      99,     119,     118
     144,      99,     100,     113,     119
     145,     100,     101,     102,     113
     146,     103,     104,     120,     112
     147,     104,     105,     114,     120
     148,     106,     107,     119,     113
     149,     107,     108,     118,     119
     150,     108,     109,     117,     118
     151,     116,     111,     121,     115
     152,     112,     120,     121,     111
     153,     114,     115,     121,     120
     154,      97,     117,     122,      96
     155,     117,     109,     110,     122
     156,     122,     110,     116,     115
     157,      96,     122,     115,      95
**
********************************** S I D E S E T S **********************************
*ELSET, ELSET=SS1_E1
      25,      26,      27,      28,      29,      30,      31,      32,      33,      34,
     104,     105,     106,     107,     108,     109,     110,     111,     112,     113
*ELSET, ELSET=SS1_E2
      19,     103
*ELSET, ELSET=SS1_E4
      20,      93
*SURFACE, NAME=SS1
SS1_E1, E1
SS1_E2, E2
SS1_E4, E4
*ELSET, ELSET=SS2_E1
      14,      15,      16,      17,      18,      19,      20,      21,      22,      23,
      24,      93,      94,      95,      96,      97,      98,      99,     100,     101,
     102,     103
*ELSET, ELSET=SS2_E2
      13,      92
*ELSET, ELSET=SS2_E4
       1,      80
*SURFACE, NAME=SS2
SS2_E1, E1
SS2_E2, E2
SS2_E4, E4
*ELSET, ELSET=SS7_E1
       6,       7,       8,       9,      10,      11,      12,      13,      80,      81,
      82,      83,      84,      85,      86,      87
*SURFACE, NAME=SS7
SS7_E1, E1
*ELSET, ELSET=SS8_E1
       1,       2,       3,       4,       5,      88,      89,      90,      91,      92
*SURFACE, NAME=SS8
SS8_E1, E1
**
********************************** P R O P E R T I E S ************************
*SHELL SECTION, ELSET=EB1, SECTION INTEGRATION=SIMPSON, MATERIAL=Default-Steel
1.000000e+00
*SHELL SECTION, ELSET=EB2, SECTION INTEGRATION=SIMPSON, MATERIAL=Default-Steel
1.000000e+00
**
*END PART
**
**
**
********************************** E N D   P A R T S **********************************
**
**
********************************** A S S E M B L Y ************************************
**
*ASSEMBLY, NAME=ASSEMBLY1
**
*INSTANCE, NAME=Part-Default_1, PART=Part-Default
*END INSTANCE
**
*END ASSEMBLY
**
**
**
*MATERIAL, NAME = Default-Steel
*ELASTIC, TYPE=ISOTROPIC
2.068000e+05, 2.900000e-01
*DENSITY
7.000000e-06
*CONDUCTIVITY,TYPE=ISO
4.500000e-02
*SPECIFIC HEAT
5.000000e+02
**
**
************************************** H I S T O R Y *************************************
**
*PREPRINT
**
**************************************** S T E P 1 ***************************************
*STEP,INC=100,NAME=Default Set
**
*STATIC
1, 1, 1e-05, 1
**
**
**
**
*END STEP
