*HEADING
cubit(brittanyerickson/Desktop/test_mesh/BP9_2D_30d_8blocks.inp): 06/02/2026: 15
version: 2024.8
**
********************************** P A R T S **********************************
*PART, NAME=Part-Default
**
********************************** N O D E S **********************************
*NODE, NSET=ALLNODES
       1,    6.928203e+01,   -4.000000e+01,    0.000000e+00
       2,    3.464102e+01,   -2.000000e+01,    0.000000e+00
       3,    0.000000e+00,    0.000000e+00,    0.000000e+00
       4,    1.492820e+02,   -4.000000e+01,    0.000000e+00
       5,    8.000000e+01,    0.000000e+00,    0.000000e+00
       6,   -8.000000e+01,    0.000000e+00,    0.000000e+00
       7,   -1.071797e+01,   -4.000000e+01,    0.000000e+00
       8,    1.146410e+02,   -2.000000e+01,    0.000000e+00
       9,   -4.535898e+01,   -2.000000e+01,    0.000000e+00
      10,    6.608752e+01,   -1.496752e+01,    0.000000e+00
      11,    8.333686e+01,   -2.498917e+01,    0.000000e+00
      12,   -1.391248e+01,   -1.496752e+01,    0.000000e+00
      13,    3.336855e+00,   -2.498917e+01,    0.000000e+00
**
********************************** E L E M E N T S ****************************
*ELEMENT, TYPE=S4R, ELSET=EB1
       1,       6,       9,      12,       3
       2,       9,       7,      13,      12
       3,       1,       2,      13,       7
       4,       2,       3,      12,      13
*ELEMENT, TYPE=S4R, ELSET=EB2
       5,       3,       2,      10,       5
       6,       2,       1,      11,      10
       7,       4,       8,      11,       1
       8,       8,       5,      10,      11
**
********************************** S I D E S E T S **********************************
*ELSET, ELSET=SS1_E1
       1,       2,       7,       8
*SURFACE, NAME=SS1
SS1_E1, E1
*ELSET, ELSET=SS2_E4
       1,       3,       5,       7
*SURFACE, NAME=SS2
SS2_E4, E4
*ELSET, ELSET=SS7_E1
       4,       5
*SURFACE, NAME=SS7
SS7_E1, E1
*ELSET, ELSET=SS8_E1
       3,       6
*SURFACE, NAME=SS8
SS8_E1, E1
**
********************************** P R O P E R T I E S ************************
*SHELL SECTION, ELSET=EB1, SECTION INTEGRATION=SIMPSON, MATERIAL=Default-Steel
1.000000e+00
*SHELL SECTION, ELSET=EB2, SECTION INTEGRATION=SIMPSON, MATERIAL=Default-Steel
1.000000e+00
**
*END PART
**
**
**
********************************** E N D   P A R T S **********************************
**
**
********************************** A S S E M B L Y ************************************
**
*ASSEMBLY, NAME=ASSEMBLY1
**
*INSTANCE, NAME=Part-Default_1, PART=Part-Default
*END INSTANCE
**
*END ASSEMBLY
**
**
**
*MATERIAL, NAME = Default-Steel
*ELASTIC, TYPE=ISOTROPIC
2.068000e+05, 2.900000e-01
*DENSITY
7.000000e-06
*CONDUCTIVITY,TYPE=ISO
4.500000e-02
*SPECIFIC HEAT
5.000000e+02
**
**
************************************** H I S T O R Y *************************************
**
*PREPRINT
**
**************************************** S T E P 1 ***************************************
*STEP,INC=100,NAME=Default Set
**
*STATIC
1, 1, 1e-05, 1
**
**
**
**
*END STEP
