*HEADING
cubit(/Users/brittanyerickson/Desktop/test_mesh/BP9_2D_90d.inp): 07/29/2026: 12:
version: 2024.8
**
********************************** P A R T S **********************************
*PART, NAME=Part-Default
**
********************************** N O D E S **********************************
*NODE, NSET=ALLNODES
       1,    0.000000e+00,    0.000000e+00,    0.000000e+00
       2,   -1.200000e+02,    0.000000e+00,    0.000000e+00
       3,   -8.000000e+00,    0.000000e+00,    0.000000e+00
       4,   -1.515427e+01,    0.000000e+00,    0.000000e+00
       5,   -2.197646e+01,    0.000000e+00,    0.000000e+00
       6,   -2.891382e+01,    0.000000e+00,    0.000000e+00
       7,   -3.643809e+01,    0.000000e+00,    0.000000e+00
       8,   -4.514421e+01,    0.000000e+00,    0.000000e+00
       9,   -5.589332e+01,    0.000000e+00,    0.000000e+00
      10,   -7.005977e+01,    0.000000e+00,    0.000000e+00
      11,   -9.000000e+01,    0.000000e+00,    0.000000e+00
      12,    1.200000e+02,    0.000000e+00,    0.000000e+00
      13,    9.000000e+01,    0.000000e+00,    0.000000e+00
      14,    7.005977e+01,    0.000000e+00,    0.000000e+00
      15,    5.589332e+01,    0.000000e+00,    0.000000e+00
      16,    4.514421e+01,    0.000000e+00,    0.000000e+00
      17,    3.643809e+01,    0.000000e+00,    0.000000e+00
      18,    2.891382e+01,    0.000000e+00,    0.000000e+00
      19,    2.197646e+01,    0.000000e+00,    0.000000e+00
      20,    1.515427e+01,    0.000000e+00,    0.000000e+00
      21,    8.000000e+00,    0.000000e+00,    0.000000e+00
      22,    0.000000e+00,   -1.200000e+02,    0.000000e+00
      23,    0.000000e+00,   -4.000000e+01,    0.000000e+00
      24,    0.000000e+00,   -9.000000e+01,    0.000000e+00
      25,    0.000000e+00,   -7.529745e+01,    0.000000e+00
      26,    0.000000e+00,   -6.643967e+01,    0.000000e+00
      27,    0.000000e+00,   -5.994326e+01,    0.000000e+00
      28,    0.000000e+00,   -5.417729e+01,    0.000000e+00
      29,    0.000000e+00,   -4.800000e+01,    0.000000e+00
      30,    0.000000e+00,   -8.000000e+00,    0.000000e+00
      31,    0.000000e+00,   -1.600000e+01,    0.000000e+00
      32,    0.000000e+00,   -2.400000e+01,    0.000000e+00
      33,    0.000000e+00,   -3.200000e+01,    0.000000e+00
      34,    1.200000e+02,   -1.200000e+02,    0.000000e+00
      35,    1.200000e+02,   -9.000000e+01,    0.000000e+00
      36,    1.200000e+02,   -6.000000e+01,    0.000000e+00
      37,    1.200000e+02,   -3.000000e+01,    0.000000e+00
      38,   -1.200000e+02,   -1.200000e+02,    0.000000e+00
      39,   -1.200000e+02,   -3.000000e+01,    0.000000e+00
      40,   -1.200000e+02,   -6.000000e+01,    0.000000e+00
      41,   -1.200000e+02,   -9.000000e+01,    0.000000e+00
      42,    3.000000e+01,   -1.200000e+02,    0.000000e+00
      43,    6.000000e+01,   -1.200000e+02,    0.000000e+00
      44,    9.000000e+01,   -1.200000e+02,    0.000000e+00
      45,   -9.000000e+01,   -1.200000e+02,    0.000000e+00
      46,   -6.000000e+01,   -1.200000e+02,    0.000000e+00
      47,   -3.000000e+01,   -1.200000e+02,    0.000000e+00
      48,    7.484761e+00,   -6.715934e+00,    0.000000e+00
      49,    8.381128e+00,   -1.384402e+01,    0.000000e+00
      50,    8.283520e+00,   -2.203657e+01,    0.000000e+00
      51,    8.341391e+00,   -3.019552e+01,    0.000000e+00
      52,    8.881103e+00,   -3.840758e+01,    0.000000e+00
      53,    8.291059e+00,   -4.659989e+01,    0.000000e+00
      54,    6.233166e+00,   -5.275433e+01,    0.000000e+00
      55,    1.021356e+01,   -5.772643e+01,    0.000000e+00
      56,    1.424307e+01,   -6.596763e+01,    0.000000e+00
      57,    1.883482e+01,   -7.799414e+01,    0.000000e+00
      58,    2.396978e+01,   -9.584847e+01,    0.000000e+00
      59,    9.414453e+01,   -2.566726e+01,    0.000000e+00
      60,    7.295371e+01,   -2.079217e+01,    0.000000e+00
      61,    5.719577e+01,   -1.685750e+01,    0.000000e+00
      62,    4.523933e+01,   -1.386528e+01,    0.000000e+00
      63,    3.536207e+01,   -1.166007e+01,    0.000000e+00
      64,    2.666920e+01,   -1.057126e+01,    0.000000e+00
      65,    1.774428e+01,   -1.037526e+01,    0.000000e+00
      66,    1.346111e+01,   -5.697064e+00,    0.000000e+00
      67,    5.035233e+01,   -9.314825e+01,    0.000000e+00
      68,    8.135705e+01,   -8.290472e+01,    0.000000e+00
      69,    9.134663e+01,   -5.227141e+01,    0.000000e+00
      70,    1.652653e+01,   -2.819121e+01,    0.000000e+00
      71,    1.852998e+01,   -3.643230e+01,    0.000000e+00
      72,    2.038680e+01,   -4.838170e+01,    0.000000e+00
      73,    2.919271e+01,   -5.928861e+01,    0.000000e+00
      74,    3.878664e+01,   -7.319268e+01,    0.000000e+00
      75,    6.922275e+01,   -4.198699e+01,    0.000000e+00
      76,    5.340099e+01,   -3.385448e+01,    0.000000e+00
      77,    4.156474e+01,   -2.747630e+01,    0.000000e+00
      78,    3.239117e+01,   -2.273641e+01,    0.000000e+00
      79,    2.459797e+01,   -2.000200e+01,    0.000000e+00
      80,    1.666842e+01,   -2.014236e+01,    0.000000e+00
      81,    5.787916e+01,   -6.141033e+01,    0.000000e+00
      82,    3.400784e+01,   -3.934523e+01,    0.000000e+00
      83,    2.284237e+01,   -2.651596e+01,    0.000000e+00
      84,    4.378227e+01,   -4.863990e+01,    0.000000e+00
      85,    2.740260e+01,   -3.135467e+01,    0.000000e+00
      86,   -2.622169e+01,   -9.662400e+01,    0.000000e+00
      87,   -2.234159e+01,   -7.838953e+01,    0.000000e+00
      88,   -1.812794e+01,   -6.552994e+01,    0.000000e+00
      89,   -1.430252e+01,   -5.610064e+01,    0.000000e+00
      90,   -1.070746e+01,   -4.858909e+01,    0.000000e+00
      91,   -7.432903e+00,   -4.273766e+01,    0.000000e+00
      92,   -4.487350e+00,   -3.852250e+01,    0.000000e+00
      93,   -6.050274e+00,   -3.291755e+01,    0.000000e+00
      94,   -7.278089e+00,   -2.503433e+01,    0.000000e+00
      95,   -7.843554e+00,   -1.659178e+01,    0.000000e+00
      96,   -7.850459e+00,   -8.237947e+00,    0.000000e+00
      97,   -1.559333e+01,   -8.563759e+00,    0.000000e+00
      98,   -2.307402e+01,   -8.431717e+00,    0.000000e+00
      99,   -3.047845e+01,   -7.676858e+00,    0.000000e+00
     100,   -3.634160e+01,   -5.756588e+00,    0.000000e+00
     101,   -4.189056e+01,   -9.452426e+00,    0.000000e+00
     102,   -5.184150e+01,   -1.544867e+01,    0.000000e+00
     103,   -6.748616e+01,   -2.121851e+01,    0.000000e+00
     104,   -8.992414e+01,   -2.711574e+01,    0.000000e+00
     105,   -8.623738e+01,   -9.060526e+01,    0.000000e+00
     106,   -5.459111e+01,   -9.512499e+01,    0.000000e+00
     107,   -7.946009e+01,   -5.880815e+01,    0.000000e+00
     108,   -4.725640e+01,   -7.351401e+01,    0.000000e+00
     109,   -3.692573e+01,   -5.783838e+01,    0.000000e+00
     110,   -2.756075e+01,   -4.693535e+01,    0.000000e+00
     111,   -1.892499e+01,   -4.026502e+01,    0.000000e+00
     112,   -2.424150e+01,   -2.885326e+01,    0.000000e+00
     113,   -1.493236e+01,   -2.679786e+01,    0.000000e+00
     114,   -1.572976e+01,   -1.732650e+01,    0.000000e+00
     115,   -2.440280e+01,   -1.750883e+01,    0.000000e+00
     116,   -3.405136e+01,   -1.563148e+01,    0.000000e+00
     117,   -5.560810e+01,   -4.187703e+01,    0.000000e+00
     118,   -3.947202e+01,   -3.014926e+01,    0.000000e+00
     119,   -1.204818e+01,   -3.574389e+01,    0.000000e+00
**
********************************** E L E M E N T S ****************************
*ELEMENT, TYPE=S4R, ELSET=EB1
       1,      22,      24,      86,      47
       2,      24,      25,      87,      86
       3,      25,      26,      88,      87
       4,      26,      27,      89,      88
       5,      27,      28,      90,      89
       6,      28,      29,      91,      90
       7,      29,      23,      92,      91
       8,      23,      33,      93,      92
       9,      33,      32,      94,      93
      10,      32,      31,      95,      94
      11,      31,      30,      96,      95
      12,      30,       1,       3,      96
      13,       3,       4,      97,      96
      14,       4,       5,      98,      97
      15,       5,       6,      99,      98
      16,       6,       7,     100,      99
      17,       7,       8,     101,     100
      18,       8,       9,     102,     101
      19,       9,      10,     103,     102
      20,      10,      11,     104,     103
      21,      11,       2,      39,     104
      22,      38,      45,     105,      41
      23,      45,      46,     106,     105
      24,      46,      47,      86,     106
      25,      39,      40,     107,     104
      26,      40,      41,     105,     107
      27,      86,      87,     108,     106
      28,      87,      88,     109,     108
      29,      88,      89,     110,     109
      30,      89,      90,     111,     110
      31,      94,      95,     114,     113
      32,      95,      96,      97,     114
      33,      97,      98,     115,     114
      34,      98,      99,     116,     115
      35,     101,     102,     118,     116
      36,     102,     103,     117,     118
      37,     103,     104,     107,     117
      38,     105,     106,     108,     107
      39,     114,     115,     112,     113
      40,     108,     109,     117,     107
      41,     109,     110,     118,     117
      42,     112,     115,     116,     118
      43,     100,     101,     116,      99
      44,     118,     110,     111,     112
      45,     119,     113,     112,     111
      46,      90,      91,     119,     111
      47,     119,      91,      92,      93
      48,     119,      93,      94,     113
*ELEMENT, TYPE=S4R, ELSET=EB2
      49,       1,      30,      48,      21
      50,      30,      31,      49,      48
      51,      31,      32,      50,      49
      52,      32,      33,      51,      50
      53,      33,      23,      52,      51
      54,      23,      29,      53,      52
      55,      29,      28,      54,      53
      56,      28,      27,      55,      54
      57,      27,      26,      56,      55
      58,      26,      25,      57,      56
      59,      25,      24,      58,      57
      60,      24,      22,      42,      58
      61,      12,      13,      59,      37
      62,      13,      14,      60,      59
      63,      14,      15,      61,      60
      64,      15,      16,      62,      61
      65,      16,      17,      63,      62
      66,      17,      18,      64,      63
      67,      18,      19,      65,      64
      68,      19,      20,      66,      65
      69,      20,      21,      48,      66
      70,      42,      43,      67,      58
      71,      43,      44,      68,      67
      72,      44,      34,      35,      68
      73,      35,      36,      69,      68
      74,      36,      37,      59,      69
      75,      48,      49,      65,      66
      76,      49,      50,      80,      65
      77,      50,      51,      70,      80
      78,      51,      52,      71,      70
      79,      55,      56,      73,      72
      80,      56,      57,      74,      73
      81,      57,      58,      67,      74
      82,      59,      60,      75,      69
      83,      60,      61,      76,      75
      84,      61,      62,      77,      76
      85,      62,      63,      78,      77
      86,      63,      64,      79,      78
      87,      64,      65,      80,      79
      88,      75,      76,      84,      81
      89,      76,      77,      82,      84
      90,      77,      78,      85,      82
      91,      78,      79,      83,      85
      92,      79,      80,      70,      83
      93,      73,      74,      81,      84
      94,      70,      71,      85,      83
      95,      75,      81,      68,      69
      96,      81,      74,      67,      68
      97,      52,      53,      72,      71
      98,      53,      54,      55,      72
      99,      82,      85,      71,      72
     100,      82,      72,      73,      84
**
********************************** S I D E S E T S **********************************
*ELSET, ELSET=SS1_E1
      25,      26,      73,      74
*ELSET, ELSET=SS1_E2
      21,      72
*ELSET, ELSET=SS1_E4
      22,      61
*SURFACE, NAME=SS1
SS1_E1, E1
SS1_E2, E2
SS1_E4, E4
*ELSET, ELSET=SS2_E1
      13,      14,      15,      16,      17,      18,      19,      20,      21,      22,
      23,      24,      61,      62,      63,      64,      65,      66,      67,      68,
      69,      70,      71,      72
*ELSET, ELSET=SS2_E2
      12,      60
*ELSET, ELSET=SS2_E4
       1,      49
*SURFACE, NAME=SS2
SS2_E1, E1
SS2_E2, E2
SS2_E4, E4
*ELSET, ELSET=SS7_E1
       8,       9,      10,      11,      12,      49,      50,      51,      52,      53
*SURFACE, NAME=SS7
SS7_E1, E1
*ELSET, ELSET=SS8_E1
       1,       2,       3,       4,       5,       6,       7,      54,      55,      56,
      57,      58,      59,      60
*SURFACE, NAME=SS8
SS8_E1, E1
**
********************************** P R O P E R T I E S ************************
*SHELL SECTION, ELSET=EB1, SECTION INTEGRATION=SIMPSON, MATERIAL=Default-Steel
1.000000e+00
*SHELL SECTION, ELSET=EB2, SECTION INTEGRATION=SIMPSON, MATERIAL=Default-Steel
1.000000e+00
**
*END PART
**
**
**
********************************** E N D   P A R T S **********************************
**
**
********************************** A S S E M B L Y ************************************
**
*ASSEMBLY, NAME=ASSEMBLY1
**
*INSTANCE, NAME=Part-Default_1, PART=Part-Default
*END INSTANCE
**
*END ASSEMBLY
**
**
**
*MATERIAL, NAME = Default-Steel
*ELASTIC, TYPE=ISOTROPIC
2.068000e+05, 2.900000e-01
*DENSITY
7.000000e-06
*CONDUCTIVITY,TYPE=ISO
4.500000e-02
*SPECIFIC HEAT
5.000000e+02
**
**
************************************** H I S T O R Y *************************************
**
*PREPRINT
**
**************************************** S T E P 1 ***************************************
*STEP,INC=100,NAME=Default Set
**
*STATIC
1, 1, 1e-05, 1
**
**
**
**
*END STEP
