*HEADING
cubit(/Users/brittanyerickson/Desktop/test_mesh/BP9_2D_60d.inp): 07/29/2026: 12:
version: 2024.8
**
********************************** P A R T S **********************************
*PART, NAME=Part-Default
**
********************************** N O D E S **********************************
*NODE, NSET=ALLNODES
       1,    0.000000e+00,    0.000000e+00,    0.000000e+00
       2,   -1.200000e+02,    0.000000e+00,    0.000000e+00
       3,   -9.000000e+00,    0.000000e+00,    0.000000e+00
       4,   -1.627033e+01,    0.000000e+00,    0.000000e+00
       5,   -2.259492e+01,    0.000000e+00,    0.000000e+00
       6,   -2.851784e+01,    0.000000e+00,    0.000000e+00
       7,   -3.448881e+01,    0.000000e+00,    0.000000e+00
       8,   -4.096950e+01,    0.000000e+00,    0.000000e+00
       9,   -4.854461e+01,    0.000000e+00,    0.000000e+00
      10,   -5.808400e+01,    0.000000e+00,    0.000000e+00
      11,   -7.103392e+01,    0.000000e+00,    0.000000e+00
      12,   -9.000000e+01,    0.000000e+00,    0.000000e+00
      13,    1.200000e+02,    0.000000e+00,    0.000000e+00
      14,    9.000000e+01,    0.000000e+00,    0.000000e+00
      15,    7.103392e+01,    0.000000e+00,    0.000000e+00
      16,    5.808400e+01,    0.000000e+00,    0.000000e+00
      17,    4.854461e+01,    0.000000e+00,    0.000000e+00
      18,    4.096950e+01,    0.000000e+00,    0.000000e+00
      19,    3.448881e+01,    0.000000e+00,    0.000000e+00
      20,    2.851784e+01,    0.000000e+00,    0.000000e+00
      21,    2.259492e+01,    0.000000e+00,    0.000000e+00
      22,    1.627033e+01,    0.000000e+00,    0.000000e+00
      23,    9.000000e+00,    0.000000e+00,    0.000000e+00
      24,    6.000000e+01,   -1.039200e+02,    0.000000e+00
      25,    2.000000e+01,   -3.464000e+01,    0.000000e+00
      26,    4.499967e+01,   -7.793943e+01,    0.000000e+00
      27,    3.791759e+01,   -6.567327e+01,    0.000000e+00
      28,    3.370295e+01,   -5.837350e+01,    0.000000e+00
      29,    3.058137e+01,   -5.296693e+01,    0.000000e+00
      30,    2.772434e+01,   -4.801856e+01,    0.000000e+00
      31,    2.450010e+01,   -4.243417e+01,    0.000000e+00
      32,    5.000000e+00,   -8.660000e+00,    0.000000e+00
      33,    1.000000e+01,   -1.732000e+01,    0.000000e+00
      34,    1.500000e+01,   -2.598000e+01,    0.000000e+00
      35,    1.800000e+02,   -1.039200e+02,    0.000000e+00
      36,    1.650000e+02,   -7.794000e+01,    0.000000e+00
      37,    1.500000e+02,   -5.196000e+01,    0.000000e+00
      38,    1.350000e+02,   -2.598000e+01,    0.000000e+00
      39,   -6.000000e+01,   -1.039200e+02,    0.000000e+00
      40,   -1.050000e+02,   -2.598000e+01,    0.000000e+00
      41,   -9.000000e+01,   -5.196000e+01,    0.000000e+00
      42,   -7.500000e+01,   -7.794000e+01,    0.000000e+00
      43,    9.000000e+01,   -1.039200e+02,    0.000000e+00
      44,    1.200000e+02,   -1.039200e+02,    0.000000e+00
      45,    1.500000e+02,   -1.039200e+02,    0.000000e+00
      46,   -3.000000e+01,   -1.039200e+02,    0.000000e+00
      47,    0.000000e+00,   -1.039200e+02,    0.000000e+00
      48,    3.000000e+01,   -1.039200e+02,    0.000000e+00
      49,    9.572093e+00,   -5.795923e+00,    0.000000e+00
      50,    5.334088e+01,   -5.206507e+01,    0.000000e+00
      51,    6.862444e+01,   -1.711101e+01,    0.000000e+00
      52,    5.574861e+01,   -1.385627e+01,    0.000000e+00
      53,    4.631029e+01,   -1.071441e+01,    0.000000e+00
      54,    3.908577e+01,   -7.899741e+00,    0.000000e+00
      55,    3.431360e+01,   -5.306635e+00,    0.000000e+00
      56,    2.959918e+01,   -7.911407e+00,    0.000000e+00
      57,    1.448394e+02,   -8.564176e+01,    0.000000e+00
      58,    1.192836e+02,   -7.532307e+01,    0.000000e+00
      59,    5.896620e+01,   -3.243862e+01,    0.000000e+00
      60,    4.891559e+01,   -2.621126e+01,    0.000000e+00
      61,    4.093371e+01,   -2.035373e+01,    0.000000e+00
      62,    3.421084e+01,   -1.454745e+01,    0.000000e+00
      63,    1.487969e+01,   -8.689026e+00,    0.000000e+00
      64,    4.560758e+01,   -4.408245e+01,    0.000000e+00
      65,    3.924192e+01,   -3.720958e+01,    0.000000e+00
      66,    3.330350e+01,   -3.037833e+01,    0.000000e+00
      67,    2.751843e+01,   -2.263164e+01,    0.000000e+00
      68,    6.455128e+01,   -6.324858e+01,    0.000000e+00
      69,    9.568393e+01,   -5.291234e+01,    0.000000e+00
      70,    7.857942e+01,   -8.081226e+01,    0.000000e+00
      71,    7.229207e+01,   -4.025502e+01,    0.000000e+00
      72,    8.717504e+01,   -2.107108e+01,    0.000000e+00
      73,    2.205968e+01,   -1.264689e+01,    0.000000e+00
      74,    2.839371e+01,   -8.505594e+01,    0.000000e+00
      75,    2.777910e+01,   -7.088504e+01,    0.000000e+00
      76,    2.790205e+01,   -6.286450e+01,    0.000000e+00
      77,    1.616171e+01,   -5.394879e+01,    0.000000e+00
      78,    8.485068e+00,   -4.640856e+01,    0.000000e+00
      79,    2.725852e+00,   -3.710200e+01,    0.000000e+00
      80,   -4.945862e-01,   -2.728123e+01,    0.000000e+00
      81,   -2.970630e+00,   -1.776632e+01,    0.000000e+00
      82,   -5.719265e+00,   -8.726694e+00,    0.000000e+00
      83,   -1.482041e+01,   -8.522251e+00,    0.000000e+00
      84,   -2.275740e+01,   -8.078025e+00,    0.000000e+00
      85,   -2.966900e+01,   -7.453703e+00,    0.000000e+00
      86,   -3.648476e+01,   -7.032802e+00,    0.000000e+00
      87,   -4.333905e+01,   -6.264982e+00,    0.000000e+00
      88,   -4.880676e+01,   -4.737076e+00,    0.000000e+00
      89,   -5.408336e+01,   -7.896426e+00,    0.000000e+00
      90,   -6.324839e+01,   -1.345748e+01,    0.000000e+00
      91,   -7.909466e+01,   -2.092454e+01,    0.000000e+00
      92,   -1.691344e+01,   -3.849040e+01,    0.000000e+00
      93,   -1.836016e+01,   -8.252709e+01,    0.000000e+00
      94,    8.247787e+00,   -8.530963e+01,    0.000000e+00
      95,    1.577005e+01,   -6.963416e+01,    0.000000e+00
      96,    2.250200e+01,   -5.927149e+01,    0.000000e+00
      97,   -1.457603e+01,   -2.715890e+01,    0.000000e+00
      98,   -1.422935e+01,   -1.756322e+01,    0.000000e+00
      99,   -2.351287e+01,   -1.617838e+01,    0.000000e+00
     100,   -3.110038e+01,   -1.456525e+01,    0.000000e+00
     101,   -3.839445e+01,   -1.418363e+01,    0.000000e+00
     102,   -4.676167e+01,   -1.249164e+01,    0.000000e+00
     103,   -5.120398e+01,   -2.154047e+01,    0.000000e+00
     104,   -2.589452e+01,   -2.445956e+01,    0.000000e+00
     105,   -3.211249e+01,   -2.058133e+01,    0.000000e+00
     106,   -3.906671e+01,   -2.269135e+01,    0.000000e+00
     107,   -3.247537e+01,   -3.241569e+01,    0.000000e+00
     108,   -5.466275e+01,   -3.833188e+01,    0.000000e+00
     109,    1.564390e+00,   -6.425575e+01,    0.000000e+00
     110,   -2.216782e+01,   -5.314850e+01,    0.000000e+00
**
********************************** E L E M E N T S ****************************
*ELEMENT, TYPE=S4R, ELSET=EB1
       1,      24,      26,      74,      48
       2,      26,      27,      75,      74
       3,      27,      28,      76,      75
       4,      28,      29,      96,      76
       5,      29,      30,      77,      96
       6,      30,      31,      78,      77
       7,      31,      25,      79,      78
       8,      25,      34,      80,      79
       9,      34,      33,      81,      80
      10,      33,      32,      82,      81
      11,      32,       1,       3,      82
      12,       3,       4,      83,      82
      13,       4,       5,      84,      83
      14,       5,       6,      85,      84
      15,       6,       7,      86,      85
      16,       7,       8,      87,      86
      17,       8,       9,      88,      87
      18,       9,      10,      89,      88
      19,      10,      11,      90,      89
      20,      11,      12,      91,      90
      21,      12,       2,      40,      91
      22,      42,      39,      46,      93
      23,      46,      47,      94,      93
      24,      47,      48,      74,      94
      25,      74,      75,      95,      94
      26,      75,      76,      96,      95
      27,      79,      80,      97,      92
      28,      80,      81,      98,      97
      29,      81,      82,      83,      98
      30,      83,      84,      99,      98
      31,      84,      85,     100,      99
      32,      85,      86,     101,     100
      33,      86,      87,     102,     101
      34,      88,      89,     102,      87
      35,      89,      90,     103,     102
      36,      98,      99,     104,      97
      37,      99,     100,     105,     104
      38,     100,     101,     106,     105
      39,     101,     102,     103,     106
      40,      97,     104,     107,      92
      41,     105,     106,     107,     104
      42,     108,     107,     106,     103
      43,     108,     103,      90,      91
      44,     108,      91,      40,      41
      45,     109,      93,      94,      95
      46,     109,      95,      96,      77
      47,      78,      79,      92,     110
      48,      78,     110,     109,      77
      49,     110,      92,     107,     108
      50,     110,     108,      41,      42
      51,      42,      93,     109,     110
*ELEMENT, TYPE=S4R, ELSET=EB2
      52,       1,      32,      49,      23
      53,      32,      33,      63,      49
      54,      33,      34,      73,      63
      55,      34,      25,      67,      73
      56,      25,      31,      66,      67
      57,      31,      30,      65,      66
      58,      30,      29,      64,      65
      59,      29,      28,      50,      64
      60,      28,      27,      68,      50
      61,      15,      16,      52,      51
      62,      16,      17,      53,      52
      63,      17,      18,      54,      53
      64,      18,      19,      55,      54
      65,      19,      20,      56,      55
      66,      35,      36,      57,      45
      67,      36,      37,      58,      57
      68,      58,      44,      45,      57
      69,      51,      52,      60,      59
      70,      52,      53,      61,      60
      71,      53,      54,      62,      61
      72,      55,      56,      62,      54
      73,      23,      49,      63,      22
      74,      59,      60,      65,      64
      75,      60,      61,      66,      65
      76,      61,      62,      67,      66
      77,      62,      56,      73,      67
      78,      26,      24,      43,      70
      79,      70,      68,      27,      26
      80,      37,      38,      69,      58
      81,      70,      58,      69,      68
      82,      58,      70,      43,      44
      83,      50,      71,      59,      64
      84,      71,      72,      51,      59
      85,      72,      14,      15,      51
      86,      71,      50,      68,      69
      87,      72,      71,      69,      38
      88,      14,      72,      38,      13
      89,      56,      20,      21,      73
      90,      73,      21,      22,      63
**
********************************** S I D E S E T S **********************************
*ELSET, ELSET=SS1_E1
      22,      66,      67,      80
*ELSET, ELSET=SS1_E2
      21
*ELSET, ELSET=SS1_E3
      44,      50,      88
*SURFACE, NAME=SS1
SS1_E1, E1
SS1_E2, E2
SS1_E3, E3
*ELSET, ELSET=SS2_E1
      12,      13,      14,      15,      16,      17,      18,      19,      20,      21,
      23,      24,      61,      62,      63,      64,      65
*ELSET, ELSET=SS2_E2
      11,      22,      68,      78,      85,      89,      90
*ELSET, ELSET=SS2_E3
      82
*ELSET, ELSET=SS2_E4
       1,      52,      66,      73,      88
*SURFACE, NAME=SS2
SS2_E1, E1
SS2_E2, E2
SS2_E3, E3
SS2_E4, E4
*ELSET, ELSET=SS7_E1
       8,       9,      10,      11,      52,      53,      54,      55
*SURFACE, NAME=SS7
SS7_E1, E1
*ELSET, ELSET=SS8_E1
       1,       2,       3,       4,       5,       6,       7,      56,      57,      58,
      59,      60,      78
*ELSET, ELSET=SS8_E3
      79
*SURFACE, NAME=SS8
SS8_E1, E1
SS8_E3, E3
**
********************************** P R O P E R T I E S ************************
*SHELL SECTION, ELSET=EB1, SECTION INTEGRATION=SIMPSON, MATERIAL=Default-Steel
1.000000e+00
*SHELL SECTION, ELSET=EB2, SECTION INTEGRATION=SIMPSON, MATERIAL=Default-Steel
1.000000e+00
**
*END PART
**
**
**
********************************** E N D   P A R T S **********************************
**
**
********************************** A S S E M B L Y ************************************
**
*ASSEMBLY, NAME=ASSEMBLY1
**
*INSTANCE, NAME=Part-Default_1, PART=Part-Default
*END INSTANCE
**
*END ASSEMBLY
**
**
**
*MATERIAL, NAME = Default-Steel
*ELASTIC, TYPE=ISOTROPIC
2.068000e+05, 2.900000e-01
*DENSITY
7.000000e-06
*CONDUCTIVITY,TYPE=ISO
4.500000e-02
*SPECIFIC HEAT
5.000000e+02
**
**
************************************** H I S T O R Y *************************************
**
*PREPRINT
**
**************************************** S T E P 1 ***************************************
*STEP,INC=100,NAME=Default Set
**
*STATIC
1, 1, 1e-05, 1
**
**
**
**
*END STEP
