*HEADING
cubit(kson/Desktop/test_mesh/BP9_2D_30d_8blocks_largedomain.inp): 06/09/2026: 15
version: 2024.8
**
********************************** P A R T S **********************************
*PART, NAME=Part-Default
**
********************************** N O D E S **********************************
*NODE, NSET=ALLNODES
       1,    3.464102e+01,   -2.000000e+01,    0.000000e+00
       2,    1.385641e+02,   -8.000000e+01,    0.000000e+00
       3,    0.000000e+00,    0.000000e+00,    0.000000e+00
       4,   -1.600000e+02,    0.000000e+00,    0.000000e+00
       5,   -2.143594e+01,   -8.000000e+01,    0.000000e+00
       6,    2.985641e+02,   -8.000000e+01,    0.000000e+00
       7,    1.600000e+02,    0.000000e+00,    0.000000e+00
       8,    2.292820e+02,   -4.000000e+01,    0.000000e+00
       9,   -9.071797e+01,   -4.000000e+01,    0.000000e+00
      10,   -3.230975e+01,   -2.744228e+01,    0.000000e+00
      11,   -6.368221e+00,   -4.248076e+01,    0.000000e+00
      12,    1.190478e+02,   -2.232689e+01,    0.000000e+00
      13,    1.622980e+02,   -4.744230e+01,    0.000000e+00
**
********************************** E L E M E N T S ****************************
*ELEMENT, TYPE=S4R, ELSET=EB1
       1,       4,       9,      10,       3
       2,       9,       5,      11,      10
       3,       2,       1,      11,       5
       4,       1,       3,      10,      11
*ELEMENT, TYPE=S4R, ELSET=EB2
       5,       3,       1,      12,       7
       6,       1,       2,      13,      12
       7,       6,       8,      13,       2
       8,       8,       7,      12,      13
**
********************************** S I D E S E T S **********************************
*ELSET, ELSET=SS1_E1
       1,       2,       7,       8
*SURFACE, NAME=SS1
SS1_E1, E1
*ELSET, ELSET=SS2_E4
       1,       3,       5,       7
*SURFACE, NAME=SS2
SS2_E4, E4
*ELSET, ELSET=SS7_E1
       4,       5
*SURFACE, NAME=SS7
SS7_E1, E1
*ELSET, ELSET=SS8_E1
       3,       6
*SURFACE, NAME=SS8
SS8_E1, E1
**
********************************** P R O P E R T I E S ************************
*SHELL SECTION, ELSET=EB1, SECTION INTEGRATION=SIMPSON, MATERIAL=Default-Steel
1.000000e+00
*SHELL SECTION, ELSET=EB2, SECTION INTEGRATION=SIMPSON, MATERIAL=Default-Steel
1.000000e+00
**
*END PART
**
**
**
********************************** E N D   P A R T S **********************************
**
**
********************************** A S S E M B L Y ************************************
**
*ASSEMBLY, NAME=ASSEMBLY1
**
*INSTANCE, NAME=Part-Default_1, PART=Part-Default
*END INSTANCE
**
*END ASSEMBLY
**
**
**
*MATERIAL, NAME = Default-Steel
*ELASTIC, TYPE=ISOTROPIC
2.068000e+05, 2.900000e-01
*DENSITY
7.000000e-06
*CONDUCTIVITY,TYPE=ISO
4.500000e-02
*SPECIFIC HEAT
5.000000e+02
**
**
************************************** H I S T O R Y *************************************
**
*PREPRINT
**
**************************************** S T E P 1 ***************************************
*STEP,INC=100,NAME=Default Set
**
*STATIC
1, 1, 1e-05, 1
**
**
**
**
*END STEP
