*HEADING
cubit(s/brittanyerickson/Desktop/test_mesh/BP9_2D_30d_large.inp): 07/29/2026: 12
version: 2024.8
**
********************************** P A R T S **********************************
*PART, NAME=Part-Default
**
********************************** N O D E S **********************************
*NODE, NSET=ALLNODES
       1,    0.000000e+00,    0.000000e+00,    0.000000e+00
       2,   -2.400000e+02,    0.000000e+00,    0.000000e+00
       3,   -8.000000e+00,    0.000000e+00,    0.000000e+00
       4,   -1.555477e+01,    0.000000e+00,    0.000000e+00
       5,   -2.289713e+01,    0.000000e+00,    0.000000e+00
       6,   -3.024111e+01,    0.000000e+00,    0.000000e+00
       7,   -3.780124e+01,    0.000000e+00,    0.000000e+00
       8,   -4.581185e+01,    0.000000e+00,    0.000000e+00
       9,   -5.454913e+01,    0.000000e+00,    0.000000e+00
      10,   -6.435971e+01,    0.000000e+00,    0.000000e+00
      11,   -7.570058e+01,    0.000000e+00,    0.000000e+00
      12,   -8.919796e+01,    0.000000e+00,    0.000000e+00
      13,   -1.057375e+02,    0.000000e+00,    0.000000e+00
      14,   -1.266062e+02,    0.000000e+00,    0.000000e+00
      15,   -1.537201e+02,    0.000000e+00,    0.000000e+00
      16,   -1.900000e+02,    0.000000e+00,    0.000000e+00
      17,    2.400000e+02,    0.000000e+00,    0.000000e+00
      18,    1.900000e+02,    0.000000e+00,    0.000000e+00
      19,    1.537201e+02,    0.000000e+00,    0.000000e+00
      20,    1.266062e+02,    0.000000e+00,    0.000000e+00
      21,    1.057375e+02,    0.000000e+00,    0.000000e+00
      22,    8.919796e+01,    0.000000e+00,    0.000000e+00
      23,    7.570058e+01,    0.000000e+00,    0.000000e+00
      24,    6.435971e+01,    0.000000e+00,    0.000000e+00
      25,    5.454913e+01,    0.000000e+00,    0.000000e+00
      26,    4.581185e+01,    0.000000e+00,    0.000000e+00
      27,    3.780124e+01,    0.000000e+00,    0.000000e+00
      28,    3.024111e+01,    0.000000e+00,    0.000000e+00
      29,    2.289713e+01,    0.000000e+00,    0.000000e+00
      30,    1.555477e+01,    0.000000e+00,    0.000000e+00
      31,    8.000000e+00,    0.000000e+00,    0.000000e+00
      32,    2.078400e+02,   -1.200000e+02,    0.000000e+00
      33,    3.464000e+01,   -2.000000e+01,    0.000000e+00
      34,    1.645390e+02,   -9.499945e+01,    0.000000e+00
      35,    1.351409e+02,   -7.802595e+01,    0.000000e+00
      36,    1.142652e+02,   -6.597296e+01,    0.000000e+00
      37,    9.876689e+01,   -5.702476e+01,    0.000000e+00
      38,    8.674157e+01,   -5.008174e+01,    0.000000e+00
      39,    7.699204e+01,   -4.445268e+01,    0.000000e+00
      40,    6.873375e+01,   -3.968461e+01,    0.000000e+00
      41,    6.142585e+01,   -3.546527e+01,    0.000000e+00
      42,    5.467018e+01,   -3.156477e+01,    0.000000e+00
      43,    4.814682e+01,   -2.779840e+01,    0.000000e+00
      44,    4.156815e+01,   -2.400009e+01,    0.000000e+00
      45,    6.928000e+00,   -4.000000e+00,    0.000000e+00
      46,    1.385600e+01,   -8.000000e+00,    0.000000e+00
      47,    2.078400e+01,   -1.200000e+01,    0.000000e+00
      48,    2.771200e+01,   -1.600000e+01,    0.000000e+00
      49,    4.478400e+02,   -1.200000e+02,    0.000000e+00
      50,    4.062720e+02,   -9.600000e+01,    0.000000e+00
      51,    3.647040e+02,   -7.200000e+01,    0.000000e+00
      52,    3.231360e+02,   -4.800000e+01,    0.000000e+00
      53,    2.815680e+02,   -2.400000e+01,    0.000000e+00
      54,   -3.216000e+01,   -1.200000e+02,    0.000000e+00
      55,   -1.984320e+02,   -2.400000e+01,    0.000000e+00
      56,   -1.568640e+02,   -4.800000e+01,    0.000000e+00
      57,   -1.152960e+02,   -7.200000e+01,    0.000000e+00
      58,   -7.372800e+01,   -9.600000e+01,    0.000000e+00
      59,    2.558400e+02,   -1.200000e+02,    0.000000e+00
      60,    3.038400e+02,   -1.200000e+02,    0.000000e+00
      61,    3.518400e+02,   -1.200000e+02,    0.000000e+00
      62,    3.998400e+02,   -1.200000e+02,    0.000000e+00
      63,    1.584000e+01,   -1.200000e+02,    0.000000e+00
      64,    6.384000e+01,   -1.200000e+02,    0.000000e+00
      65,    1.118400e+02,   -1.200000e+02,    0.000000e+00
      66,    1.598400e+02,   -1.200000e+02,    0.000000e+00
      67,    3.101170e+01,   -2.188721e+00,    0.000000e+00
      68,    3.588840e+02,   -9.649468e+01,    0.000000e+00
      69,    3.178703e+02,   -7.328663e+01,    0.000000e+00
      70,    2.764088e+02,   -5.089358e+01,    0.000000e+00
      71,    2.355505e+02,   -3.158606e+01,    0.000000e+00
      72,    1.952228e+02,   -1.951884e+01,    0.000000e+00
      73,    1.580811e+02,   -1.621876e+01,    0.000000e+00
      74,    1.308374e+02,   -1.365177e+01,    0.000000e+00
      75,    1.097547e+02,   -1.153973e+01,    0.000000e+00
      76,    9.345507e+01,   -9.826285e+00,    0.000000e+00
      77,    7.983867e+01,   -8.374714e+00,    0.000000e+00
      78,    6.837374e+01,   -7.143037e+00,    0.000000e+00
      79,    5.839492e+01,   -6.072850e+00,    0.000000e+00
      80,    4.975100e+01,   -5.102781e+00,    0.000000e+00
      81,    4.199664e+01,   -4.174466e+00,    0.000000e+00
      82,    3.498116e+01,   -3.232602e+00,    0.000000e+00
      83,    1.472975e+01,   -4.058128e+00,    0.000000e+00
      84,    2.169054e+01,   -3.874880e+00,    0.000000e+00
      85,    2.737410e+01,   -3.272781e+00,    0.000000e+00
      86,    2.101609e+01,   -7.840355e+00,    0.000000e+00
      87,    2.721075e+01,   -1.132386e+01,    0.000000e+00
      88,    3.374225e+01,   -1.463677e+01,    0.000000e+00
      89,    4.066533e+01,   -1.791121e+01,    0.000000e+00
      90,    4.787579e+01,   -2.120407e+01,    0.000000e+00
      91,    5.510019e+01,   -2.446901e+01,    0.000000e+00
      92,    6.278396e+01,   -2.791779e+01,    0.000000e+00
      93,    7.101682e+01,   -3.162601e+01,    0.000000e+00
      94,    8.046771e+01,   -3.585673e+01,    0.000000e+00
      95,    9.162854e+01,   -4.079960e+01,    0.000000e+00
      96,    1.058746e+02,   -4.690218e+01,    0.000000e+00
      97,    1.238683e+02,   -5.450808e+01,    0.000000e+00
      98,    1.476120e+02,   -6.502887e+01,    0.000000e+00
      99,    1.779038e+02,   -7.955207e+01,    0.000000e+00
     100,    2.150291e+02,   -9.856805e+01,    0.000000e+00
     101,    2.694589e+01,   -7.065806e+00,    0.000000e+00
     102,    3.268921e+01,   -9.808552e+00,    0.000000e+00
     103,    3.929609e+01,   -1.237334e+01,    0.000000e+00
     104,    4.663081e+01,   -1.493838e+01,    0.000000e+00
     105,    5.433944e+01,   -1.753786e+01,    0.000000e+00
     106,    6.268172e+01,   -2.029960e+01,    0.000000e+00
     107,    7.171031e+01,   -2.328304e+01,    0.000000e+00
     108,    8.206020e+01,   -2.668074e+01,    0.000000e+00
     109,    9.437706e+01,   -3.066316e+01,    0.000000e+00
     110,    1.100618e+02,   -3.557990e+01,    0.000000e+00
     111,    1.299825e+02,   -4.146755e+01,    0.000000e+00
     112,    1.557312e+02,   -4.962961e+01,    0.000000e+00
     113,    1.868736e+02,   -6.151061e+01,    0.000000e+00
     114,    2.234212e+02,   -7.806381e+01,    0.000000e+00
     115,    2.634960e+02,   -9.831455e+01,    0.000000e+00
     116,    3.168523e+01,   -5.578770e+00,    0.000000e+00
     117,    3.746085e+01,   -7.440125e+00,    0.000000e+00
     118,    4.451543e+01,   -9.201313e+00,    0.000000e+00
     119,    5.235514e+01,   -1.099219e+01,    0.000000e+00
     120,    6.103682e+01,   -1.289799e+01,    0.000000e+00
     121,    7.076205e+01,   -1.500501e+01,    0.000000e+00
     122,    8.178841e+01,   -1.738468e+01,    0.000000e+00
     123,    9.512743e+01,   -2.022071e+01,    0.000000e+00
     124,    1.113213e+02,   -2.357939e+01,    0.000000e+00
     125,    1.319556e+02,   -2.765271e+01,    0.000000e+00
     126,    1.603126e+02,   -3.298265e+01,    0.000000e+00
     127,    1.932333e+02,   -4.169799e+01,    0.000000e+00
     128,    2.307848e+02,   -5.631606e+01,    0.000000e+00
     129,    2.706290e+02,   -7.552629e+01,    0.000000e+00
     130,    3.116113e+02,   -9.742210e+01,    0.000000e+00
     131,    1.222770e+01,   -3.135766e+01,    0.000000e+00
     132,    3.165836e+01,   -2.661153e+01,    0.000000e+00
     133,    2.322334e+01,   -2.853505e+01,    0.000000e+00
     134,    1.651405e+01,   -3.022312e+01,    0.000000e+00
     135,   -2.106777e+01,   -8.860526e+00,    0.000000e+00
     136,   -1.237432e+01,   -1.565283e+01,    0.000000e+00
     137,   -4.378191e+00,   -2.122662e+01,    0.000000e+00
     138,    2.628987e+00,   -2.558361e+01,    0.000000e+00
     139,    8.419480e+00,   -2.902475e+01,    0.000000e+00
     140,    1.480991e+01,   -1.103929e+02,    0.000000e+00
     141,    1.362360e+01,   -1.000230e+02,    0.000000e+00
     142,    1.295516e+01,   -9.016167e+01,    0.000000e+00
     143,    1.233537e+01,   -8.040171e+01,    0.000000e+00
     144,    1.206425e+01,   -7.143075e+01,    0.000000e+00
     145,    1.174236e+01,   -6.271192e+01,    0.000000e+00
     146,    1.158864e+01,   -5.471274e+01,    0.000000e+00
     147,    1.161473e+01,   -4.757144e+01,    0.000000e+00
     148,    1.171252e+01,   -4.113017e+01,    0.000000e+00
     149,    1.189241e+01,   -3.553712e+01,    0.000000e+00
     150,    5.260444e+01,   -1.083353e+02,    0.000000e+00
     151,    8.954313e+01,   -1.048115e+02,    0.000000e+00
     152,    1.267061e+02,   -1.002433e+02,    0.000000e+00
     153,    4.535009e+01,   -9.827074e+01,    0.000000e+00
     154,    7.539636e+01,   -9.330416e+01,    0.000000e+00
     155,    1.051807e+02,   -8.648097e+01,    0.000000e+00
     156,    3.968293e+01,   -8.860492e+01,    0.000000e+00
     157,    6.524966e+01,   -8.318406e+01,    0.000000e+00
     158,    9.003691e+01,   -7.598690e+01,    0.000000e+00
     159,    3.537195e+01,   -7.950690e+01,    0.000000e+00
     160,    5.747667e+01,   -7.452617e+01,    0.000000e+00
     161,    7.844445e+01,   -6.698797e+01,    0.000000e+00
     162,    3.166518e+01,   -7.072869e+01,    0.000000e+00
     163,    5.110943e+01,   -6.628108e+01,    0.000000e+00
     164,    6.927053e+01,   -5.958507e+01,    0.000000e+00
     165,    2.850341e+01,   -6.248759e+01,    0.000000e+00
     166,    4.548591e+01,   -5.902560e+01,    0.000000e+00
     167,    6.153867e+01,   -5.270385e+01,    0.000000e+00
     168,    2.588356e+01,   -5.489407e+01,    0.000000e+00
     169,    4.057930e+01,   -5.210624e+01,    0.000000e+00
     170,    5.472119e+01,   -4.699546e+01,    0.000000e+00
     171,    2.358421e+01,   -4.786380e+01,    0.000000e+00
     172,    3.585067e+01,   -4.562874e+01,    0.000000e+00
     173,    4.865931e+01,   -4.145027e+01,    0.000000e+00
     174,    2.114656e+01,   -4.115630e+01,    0.000000e+00
     175,    3.168955e+01,   -3.949487e+01,    0.000000e+00
     176,    4.278746e+01,   -3.639651e+01,    0.000000e+00
     177,    1.895855e+01,   -3.517043e+01,    0.000000e+00
     178,    2.753761e+01,   -3.373157e+01,    0.000000e+00
     179,    3.719918e+01,   -3.143622e+01,    0.000000e+00
     180,    2.583249e+01,   -2.219276e+01,    0.000000e+00
     181,    1.989039e+01,   -1.801942e+01,    0.000000e+00
     182,    1.365334e+01,   -1.401244e+01,    0.000000e+00
     183,    6.988011e+00,   -9.845512e+00,    0.000000e+00
     184,   -2.231841e-01,   -5.202887e+00,    0.000000e+00
     185,    1.855983e+01,   -2.417701e+01,    0.000000e+00
     186,    1.325690e+01,   -2.009015e+01,    0.000000e+00
     187,    7.220819e+00,   -1.607596e+01,    0.000000e+00
     188,    4.207077e-01,   -1.166838e+01,    0.000000e+00
     189,   -7.193470e+00,   -6.408954e+00,    0.000000e+00
     190,    1.278251e+01,   -2.628431e+01,    0.000000e+00
     191,    7.641229e+00,   -2.261212e+01,    0.000000e+00
     192,    1.224948e+00,   -1.833206e+01,    0.000000e+00
     193,   -5.969535e+00,   -1.361860e+01,    0.000000e+00
     194,   -1.410719e+01,   -7.588651e+00,    0.000000e+00
     195,   -2.825473e+01,   -1.023638e+01,    0.000000e+00
     196,   -3.581254e+01,   -1.153434e+01,    0.000000e+00
     197,   -4.391511e+01,   -1.291332e+01,    0.000000e+00
     198,   -5.308035e+01,   -1.471017e+01,    0.000000e+00
     199,   -6.347586e+01,   -1.657254e+01,    0.000000e+00
     200,   -7.532128e+01,   -1.827513e+01,    0.000000e+00
     201,   -8.952636e+01,   -2.007544e+01,    0.000000e+00
     202,   -1.065072e+02,   -2.146166e+01,    0.000000e+00
     203,   -1.282882e+02,   -2.267033e+01,    0.000000e+00
     204,   -1.576255e+02,   -2.366976e+01,    0.000000e+00
     205,   -1.881099e+01,   -1.813224e+01,    0.000000e+00
     206,   -2.555049e+01,   -2.090020e+01,    0.000000e+00
     207,   -3.272341e+01,   -2.365604e+01,    0.000000e+00
     208,   -4.060335e+01,   -2.689732e+01,    0.000000e+00
     209,   -4.947014e+01,   -3.042357e+01,    0.000000e+00
     210,   -5.968027e+01,   -3.414300e+01,    0.000000e+00
     211,   -7.154219e+01,   -3.784668e+01,    0.000000e+00
     212,   -8.559911e+01,   -4.131533e+01,    0.000000e+00
     213,   -1.026987e+02,   -4.415540e+01,    0.000000e+00
     214,   -1.252924e+02,   -4.658068e+01,    0.000000e+00
     215,   -9.918623e+00,   -2.458673e+01,    0.000000e+00
     216,   -1.568493e+01,   -2.812753e+01,    0.000000e+00
     217,   -2.163662e+01,   -3.215521e+01,    0.000000e+00
     218,   -2.801901e+01,   -3.699971e+01,    0.000000e+00
     219,   -3.512738e+01,   -4.218821e+01,    0.000000e+00
     220,   -4.305520e+01,   -4.739837e+01,    0.000000e+00
     221,   -5.234955e+01,   -5.314095e+01,    0.000000e+00
     222,   -6.307836e+01,   -5.858316e+01,    0.000000e+00
     223,   -7.607088e+01,   -6.376869e+01,    0.000000e+00
     224,   -9.279756e+01,   -6.854456e+01,    0.000000e+00
     225,   -1.835939e+00,   -2.957570e+01,    0.000000e+00
     226,   -6.355765e+00,   -3.404299e+01,    0.000000e+00
     227,   -1.084491e+01,   -3.923441e+01,    0.000000e+00
     228,   -1.535816e+01,   -4.529485e+01,    0.000000e+00
     229,   -2.032519e+01,   -5.183614e+01,    0.000000e+00
     230,   -2.591593e+01,   -5.884138e+01,    0.000000e+00
     231,   -3.222975e+01,   -6.622584e+01,    0.000000e+00
     232,   -3.955383e+01,   -7.396819e+01,    0.000000e+00
     233,   -4.820129e+01,   -8.176455e+01,    0.000000e+00
     234,   -5.926690e+01,   -8.930150e+01,    0.000000e+00
     235,    5.416422e+00,   -3.334965e+01,    0.000000e+00
     236,    2.523913e+00,   -3.861507e+01,    0.000000e+00
     237,    2.321737e-01,   -4.482681e+01,    0.000000e+00
     238,   -2.163750e+00,   -5.158936e+01,    0.000000e+00
     239,   -4.745931e+00,   -5.904144e+01,    0.000000e+00
     240,   -7.555333e+00,   -6.734646e+01,    0.000000e+00
     241,   -1.070109e+01,   -7.638954e+01,    0.000000e+00
     242,   -1.445999e+01,   -8.581394e+01,    0.000000e+00
     243,   -1.888091e+01,   -9.631856e+01,    0.000000e+00
     244,   -2.448515e+01,   -1.077357e+02,    0.000000e+00
**
********************************** E L E M E N T S ****************************
*ELEMENT, TYPE=S4R, ELSET=EB1
       1,      63,      64,     150,     140
       2,      64,      65,     151,     150
       3,      65,      66,     152,     151
       4,      66,      32,      34,     152
       5,     140,     150,     153,     141
       6,     150,     151,     154,     153
       7,     151,     152,     155,     154
       8,     152,      34,      35,     155
       9,     141,     153,     156,     142
      10,     153,     154,     157,     156
      11,     154,     155,     158,     157
      12,     155,      35,      36,     158
      13,     142,     156,     159,     143
      14,     156,     157,     160,     159
      15,     157,     158,     161,     160
      16,     158,      36,      37,     161
      17,     143,     159,     162,     144
      18,     159,     160,     163,     162
      19,     160,     161,     164,     163
      20,     161,      37,      38,     164
      21,     144,     162,     165,     145
      22,     162,     163,     166,     165
      23,     163,     164,     167,     166
      24,     164,      38,      39,     167
      25,     145,     165,     168,     146
      26,     165,     166,     169,     168
      27,     166,     167,     170,     169
      28,     167,      39,      40,     170
      29,     146,     168,     171,     147
      30,     168,     169,     172,     171
      31,     169,     170,     173,     172
      32,     170,      40,      41,     173
      33,     147,     171,     174,     148
      34,     171,     172,     175,     174
      35,     172,     173,     176,     175
      36,     173,      41,      42,     176
      37,     148,     174,     177,     149
      38,     174,     175,     178,     177
      39,     175,     176,     179,     178
      40,     176,      42,      43,     179
      41,     149,     177,     134,     131
      42,     177,     178,     133,     134
      43,     178,     179,     132,     133
      44,     179,      43,      44,     132
      45,      44,      33,     180,     132
      46,      33,      48,     181,     180
      47,      48,      47,     182,     181
      48,      47,      46,     183,     182
      49,      46,      45,     184,     183
      50,      45,       1,       3,     184
      51,     132,     180,     185,     133
      52,     180,     181,     186,     185
      53,     181,     182,     187,     186
      54,     182,     183,     188,     187
      55,     183,     184,     189,     188
      56,     184,       3,       4,     189
      57,     133,     185,     190,     134
      58,     185,     186,     191,     190
      59,     186,     187,     192,     191
      60,     187,     188,     193,     192
      61,     188,     189,     194,     193
      62,     189,       4,       5,     194
      63,     134,     190,     139,     131
      64,     190,     191,     138,     139
      65,     191,     192,     137,     138
      66,     192,     193,     136,     137
      67,     193,     194,     135,     136
      68,     194,       5,       6,     135
      69,       6,       7,     195,     135
      70,       7,       8,     196,     195
      71,       8,       9,     197,     196
      72,       9,      10,     198,     197
      73,      10,      11,     199,     198
      74,      11,      12,     200,     199
      75,      12,      13,     201,     200
      76,      13,      14,     202,     201
      77,      14,      15,     203,     202
      78,      15,      16,     204,     203
      79,      16,       2,      55,     204
      80,     135,     195,     205,     136
      81,     195,     196,     206,     205
      82,     196,     197,     207,     206
      83,     197,     198,     208,     207
      84,     198,     199,     209,     208
      85,     199,     200,     210,     209
      86,     200,     201,     211,     210
      87,     201,     202,     212,     211
      88,     202,     203,     213,     212
      89,     203,     204,     214,     213
      90,     204,      55,      56,     214
      91,     136,     205,     215,     137
      92,     205,     206,     216,     215
      93,     206,     207,     217,     216
      94,     207,     208,     218,     217
      95,     208,     209,     219,     218
      96,     209,     210,     220,     219
      97,     210,     211,     221,     220
      98,     211,     212,     222,     221
      99,     212,     213,     223,     222
     100,     213,     214,     224,     223
     101,     214,      56,      57,     224
     102,     137,     215,     225,     138
     103,     215,     216,     226,     225
     104,     216,     217,     227,     226
     105,     217,     218,     228,     227
     106,     218,     219,     229,     228
     107,     219,     220,     230,     229
     108,     220,     221,     231,     230
     109,     221,     222,     232,     231
     110,     222,     223,     233,     232
     111,     223,     224,     234,     233
     112,     224,      57,      58,     234
     113,     138,     225,     235,     139
     114,     225,     226,     236,     235
     115,     226,     227,     237,     236
     116,     227,     228,     238,     237
     117,     228,     229,     239,     238
     118,     229,     230,     240,     239
     119,     230,     231,     241,     240
     120,     231,     232,     242,     241
     121,     232,     233,     243,     242
     122,     233,     234,     244,     243
     123,     234,      58,      54,     244
     124,     139,     235,     149,     131
     125,     235,     236,     148,     149
     126,     236,     237,     147,     148
     127,     237,     238,     146,     147
     128,     238,     239,     145,     146
     129,     239,     240,     144,     145
     130,     240,     241,     143,     144
     131,     241,     242,     142,     143
     132,     242,     243,     141,     142
     133,     243,     244,     140,     141
     134,     244,      54,      63,     140
*ELEMENT, TYPE=S4R, ELSET=EB2
     135,      45,      46,      86,      83
     136,      46,      47,      87,      86
     137,      47,      48,      88,      87
     138,      48,      33,      89,      88
     139,      33,      44,      90,      89
     140,      44,      43,      91,      90
     141,      43,      42,      92,      91
     142,      42,      41,      93,      92
     143,      41,      40,      94,      93
     144,      40,      39,      95,      94
     145,      39,      38,      96,      95
     146,      38,      37,      97,      96
     147,      37,      36,      98,      97
     148,      36,      35,      99,      98
     149,      35,      34,     100,      99
     150,      34,      32,      59,     100
     151,      83,      86,     101,      84
     152,      86,      87,     102,     101
     153,      87,      88,     103,     102
     154,      88,      89,     104,     103
     155,      89,      90,     105,     104
     156,      90,      91,     106,     105
     157,      91,      92,     107,     106
     158,      92,      93,     108,     107
     159,      93,      94,     109,     108
     160,      94,      95,     110,     109
     161,      95,      96,     111,     110
     162,      96,      97,     112,     111
     163,      97,      98,     113,     112
     164,      98,      99,     114,     113
     165,      99,     100,     115,     114
     166,     100,      59,      60,     115
     167,      84,     101,     116,      85
     168,     101,     102,     117,     116
     169,     102,     103,     118,     117
     170,     103,     104,     119,     118
     171,     104,     105,     120,     119
     172,     105,     106,     121,     120
     173,     106,     107,     122,     121
     174,     107,     108,     123,     122
     175,     108,     109,     124,     123
     176,     109,     110,     125,     124
     177,     110,     111,     126,     125
     178,     111,     112,     127,     126
     179,     112,     113,     128,     127
     180,     113,     114,     129,     128
     181,     114,     115,     130,     129
     182,     115,      60,      61,     130
     183,      85,     116,      82,      67
     184,     116,     117,      81,      82
     185,     117,     118,      80,      81
     186,     118,     119,      79,      80
     187,     119,     120,      78,      79
     188,     120,     121,      77,      78
     189,     121,     122,      76,      77
     190,     122,     123,      75,      76
     191,     123,     124,      74,      75
     192,     124,     125,      73,      74
     193,     125,     126,      72,      73
     194,     126,     127,      71,      72
     195,     127,     128,      70,      71
     196,     128,     129,      69,      70
     197,     129,     130,      68,      69
     198,     130,      61,      62,      68
     199,      62,      49,      50,      68
     200,      68,      50,      51,      69
     201,      69,      51,      52,      70
     202,      70,      52,      53,      71
     203,      71,      53,      17,      72
     204,      72,      17,      18,      73
     205,      73,      18,      19,      74
     206,      74,      19,      20,      75
     207,      75,      20,      21,      76
     208,      76,      21,      22,      77
     209,      77,      22,      23,      78
     210,      78,      23,      24,      79
     211,      79,      24,      25,      80
     212,      80,      25,      26,      81
     213,      81,      26,      27,      82
     214,      82,      27,      28,      67
     215,      28,      29,      85,      67
     216,      29,      30,      84,      85
     217,      30,      31,      83,      84
     218,      31,       1,      45,      83
**
********************************** S I D E S E T S **********************************
*ELSET, ELSET=SS1_E2
      79,      90,     101,     112,     123,     199,     200,     201,     202,     203
*SURFACE, NAME=SS1
SS1_E2, E2
*ELSET, ELSET=SS2_E1
       1,       2,       3,       4,      69,      70,      71,      72,      73,      74,
      75,      76,      77,      78,      79,     199,     215,     216,     217,     218
*ELSET, ELSET=SS2_E2
      50,      56,      62,      68,     134,     150,     166,     182,     198,     204,
     205,     206,     207,     208,     209,     210,     211,     212,     213,     214
*SURFACE, NAME=SS2
SS2_E1, E1
SS2_E2, E2
*ELSET, ELSET=SS7_E1
      46,      47,      48,      49,      50,     135,     136,     137,     138
*ELSET, ELSET=SS7_E2
     218
*SURFACE, NAME=SS7
SS7_E1, E1
SS7_E2, E2
*ELSET, ELSET=SS8_E1
      45,     139,     140,     141,     142,     143,     144,     145,     146,     147,
     148,     149,     150
*ELSET, ELSET=SS8_E2
       4,       8,      12,      16,      20,      24,      28,      32,      36,      40,
      44
*SURFACE, NAME=SS8
SS8_E1, E1
SS8_E2, E2
**
********************************** P R O P E R T I E S ************************
*SHELL SECTION, ELSET=EB1, SECTION INTEGRATION=SIMPSON, MATERIAL=Default-Steel
1.000000e+00
*SHELL SECTION, ELSET=EB2, SECTION INTEGRATION=SIMPSON, MATERIAL=Default-Steel
1.000000e+00
**
*END PART
**
**
**
********************************** E N D   P A R T S **********************************
**
**
********************************** A S S E M B L Y ************************************
**
*ASSEMBLY, NAME=ASSEMBLY1
**
*INSTANCE, NAME=Part-Default_1, PART=Part-Default
*END INSTANCE
**
*END ASSEMBLY
**
**
**
*MATERIAL, NAME = Default-Steel
*ELASTIC, TYPE=ISOTROPIC
2.068000e+05, 2.900000e-01
*DENSITY
7.000000e-06
*CONDUCTIVITY,TYPE=ISO
4.500000e-02
*SPECIFIC HEAT
5.000000e+02
**
**
************************************** H I S T O R Y *************************************
**
*PREPRINT
**
**************************************** S T E P 1 ***************************************
*STEP,INC=100,NAME=Default Set
**
*STATIC
1, 1, 1e-05, 1
**
**
**
**
*END STEP
