*HEADING
cubit(/Users/brittanyerickson/Desktop/test_mesh/BP9_2D_30d.inp): 06/02/2026: 10:
version: 2024.8
**
********************************** P A R T S **********************************
*PART, NAME=Part-Default
**
********************************** N O D E S **********************************
*NODE, NSET=ALLNODES
       1,    0.000000e+00,    0.000000e+00,    0.000000e+00
       2,   -1.200000e+02,    0.000000e+00,    0.000000e+00
       3,   -8.000000e+00,    0.000000e+00,    0.000000e+00
       4,   -1.395455e+01,    0.000000e+00,    0.000000e+00
       5,   -1.866179e+01,    0.000000e+00,    0.000000e+00
       6,   -2.261203e+01,    0.000000e+00,    0.000000e+00
       7,   -2.612996e+01,    0.000000e+00,    0.000000e+00
       8,   -2.945445e+01,    0.000000e+00,    0.000000e+00
       9,   -3.278853e+01,    0.000000e+00,    0.000000e+00
      10,   -3.633772e+01,    0.000000e+00,    0.000000e+00
      11,   -4.034918e+01,    0.000000e+00,    0.000000e+00
      12,   -4.516442e+01,    0.000000e+00,    0.000000e+00
      13,   -5.130494e+01,    0.000000e+00,    0.000000e+00
      14,   -5.962683e+01,    0.000000e+00,    0.000000e+00
      15,   -7.161808e+01,    0.000000e+00,    0.000000e+00
      16,   -9.000000e+01,    0.000000e+00,    0.000000e+00
      17,    1.200000e+02,    0.000000e+00,    0.000000e+00
      18,    9.000000e+01,    0.000000e+00,    0.000000e+00
      19,    7.161808e+01,    0.000000e+00,    0.000000e+00
      20,    5.962683e+01,    0.000000e+00,    0.000000e+00
      21,    5.130494e+01,    0.000000e+00,    0.000000e+00
      22,    4.516442e+01,    0.000000e+00,    0.000000e+00
      23,    4.034918e+01,    0.000000e+00,    0.000000e+00
      24,    3.633772e+01,    0.000000e+00,    0.000000e+00
      25,    3.278853e+01,    0.000000e+00,    0.000000e+00
      26,    2.945445e+01,    0.000000e+00,    0.000000e+00
      27,    2.612996e+01,    0.000000e+00,    0.000000e+00
      28,    2.261203e+01,    0.000000e+00,    0.000000e+00
      29,    1.866179e+01,    0.000000e+00,    0.000000e+00
      30,    1.395455e+01,    0.000000e+00,    0.000000e+00
      31,    8.000000e+00,    0.000000e+00,    0.000000e+00
      32,    1.039200e+02,   -6.000000e+01,    0.000000e+00
      33,    3.464000e+01,   -2.000000e+01,    0.000000e+00
      34,    7.793943e+01,   -4.499967e+01,    0.000000e+00
      35,    6.644730e+01,   -3.836449e+01,    0.000000e+00
      36,    6.036136e+01,   -3.485067e+01,    0.000000e+00
      37,    5.653913e+01,   -3.264384e+01,    0.000000e+00
      38,    5.371016e+01,   -3.101048e+01,    0.000000e+00
      39,    5.125182e+01,   -2.959112e+01,    0.000000e+00
      40,    4.874796e+01,   -2.814548e+01,    0.000000e+00
      41,    4.575878e+01,   -2.641962e+01,    0.000000e+00
      42,    4.156815e+01,   -2.400009e+01,    0.000000e+00
      43,    6.928000e+00,   -4.000000e+00,    0.000000e+00
      44,    1.385600e+01,   -8.000000e+00,    0.000000e+00
      45,    2.078400e+01,   -1.200000e+01,    0.000000e+00
      46,    2.771200e+01,   -1.600000e+01,    0.000000e+00
      47,    2.239200e+02,   -6.000000e+01,    0.000000e+00
      48,    1.979400e+02,   -4.500000e+01,    0.000000e+00
      49,    1.719600e+02,   -3.000000e+01,    0.000000e+00
      50,    1.459800e+02,   -1.500000e+01,    0.000000e+00
      51,   -1.608000e+01,   -6.000000e+01,    0.000000e+00
      52,   -9.402000e+01,   -1.500000e+01,    0.000000e+00
      53,   -6.804000e+01,   -3.000000e+01,    0.000000e+00
      54,   -4.206000e+01,   -4.500000e+01,    0.000000e+00
      55,    1.339200e+02,   -6.000000e+01,    0.000000e+00
      56,    1.639200e+02,   -6.000000e+01,    0.000000e+00
      57,    1.939200e+02,   -6.000000e+01,    0.000000e+00
      58,    1.392000e+01,   -6.000000e+01,    0.000000e+00
      59,    4.392000e+01,   -6.000000e+01,    0.000000e+00
      60,    7.392000e+01,   -6.000000e+01,    0.000000e+00
      61,    1.860941e+02,   -4.986471e+01,    0.000000e+00
      62,    1.664753e+02,   -4.461195e+01,    0.000000e+00
      63,    1.399114e+02,   -3.755053e+01,    0.000000e+00
      64,    9.498408e+00,   -2.386064e+00,    0.000000e+00
      65,    1.365089e+01,   -3.216547e+00,    0.000000e+00
      66,    5.334258e+01,   -2.574935e+01,    0.000000e+00
      67,    5.509729e+01,   -2.810524e+01,    0.000000e+00
      68,    5.825258e+01,   -2.788472e+01,    0.000000e+00
      69,    6.379167e+01,   -2.735683e+01,    0.000000e+00
      70,    7.412018e+01,   -2.485434e+01,    0.000000e+00
      71,    8.950493e+01,   -2.586712e+01,    0.000000e+00
      72,    1.135463e+02,   -3.096360e+01,    0.000000e+00
      73,    5.059204e+01,   -2.221722e+01,    0.000000e+00
      74,    5.410084e+01,   -1.771035e+01,    0.000000e+00
      75,    5.701152e+01,   -2.263381e+01,    0.000000e+00
      76,    6.249514e+01,   -1.787008e+01,    0.000000e+00
      77,    5.767917e+01,   -1.103587e+01,    0.000000e+00
      78,    5.173687e+01,   -8.342269e+00,    0.000000e+00
      79,    4.626255e+01,   -7.590028e+00,    0.000000e+00
      80,    4.126676e+01,   -6.354394e+00,    0.000000e+00
      81,    3.728221e+01,   -5.120885e+00,    0.000000e+00
      82,    2.418504e+01,   -6.129364e+00,    0.000000e+00
      83,    1.740168e+01,   -2.581595e+00,    0.000000e+00
      84,    3.424216e+01,   -9.008262e+00,    0.000000e+00
      85,    5.062720e+01,   -1.412965e+01,    0.000000e+00
      86,    4.624636e+01,   -1.667511e+01,    0.000000e+00
      87,    4.054500e+01,   -1.346169e+01,    0.000000e+00
      88,    2.000925e+01,   -4.581032e+00,    0.000000e+00
      89,    2.885348e+01,   -7.533284e+00,    0.000000e+00
      90,   -1.055824e+00,   -1.610925e+01,    0.000000e+00
      91,    1.525768e+01,   -1.556795e+01,    0.000000e+00
      92,    7.003907e+00,   -1.550499e+01,    0.000000e+00
      93,    1.881005e+00,   -1.570369e+01,    0.000000e+00
      94,   -1.461258e+01,   -6.161661e+00,    0.000000e+00
      95,   -8.161907e+00,   -1.072160e+01,    0.000000e+00
      96,   -3.544134e+00,   -1.406178e+01,    0.000000e+00
      97,   -1.361362e+01,   -5.442566e+01,    0.000000e+00
      98,   -1.148756e+01,   -4.920205e+01,    0.000000e+00
      99,   -9.715091e+00,   -4.448515e+01,    0.000000e+00
     100,   -8.113078e+00,   -3.996759e+01,    0.000000e+00
     101,   -6.717581e+00,   -3.566649e+01,    0.000000e+00
     102,   -5.497222e+00,   -3.174360e+01,    0.000000e+00
     103,   -4.395222e+00,   -2.800526e+01,    0.000000e+00
     104,   -3.411273e+00,   -2.453449e+01,    0.000000e+00
     105,   -2.510080e+00,   -2.134710e+01,    0.000000e+00
     106,   -1.718566e+00,   -1.847391e+01,    0.000000e+00
     107,    1.171115e+01,   -5.532519e+01,    0.000000e+00
     108,    3.684715e+01,   -5.449574e+01,    0.000000e+00
     109,    5.934316e+01,   -5.125211e+01,    0.000000e+00
     110,    1.017280e+01,   -5.076514e+01,    0.000000e+00
     111,    3.212075e+01,   -5.000071e+01,    0.000000e+00
     112,    5.213729e+01,   -4.640510e+01,    0.000000e+00
     113,    8.941384e+00,   -4.634962e+01,    0.000000e+00
     114,    2.840028e+01,   -4.572189e+01,    0.000000e+00
     115,    4.709710e+01,   -4.271411e+01,    0.000000e+00
     116,    7.877451e+00,   -4.204328e+01,    0.000000e+00
     117,    2.527901e+01,   -4.175170e+01,    0.000000e+00
     118,    4.298382e+01,   -3.935253e+01,    0.000000e+00
     119,    7.033371e+00,   -3.786032e+01,    0.000000e+00
     120,    2.235893e+01,   -3.796465e+01,    0.000000e+00
     121,    3.927724e+01,   -3.637894e+01,    0.000000e+00
     122,    6.135551e+00,   -3.376393e+01,    0.000000e+00
     123,    1.975188e+01,   -3.414481e+01,    0.000000e+00
     124,    3.566242e+01,   -3.340760e+01,    0.000000e+00
     125,    5.383273e+00,   -2.983496e+01,    0.000000e+00
     126,    1.723784e+01,   -3.038060e+01,    0.000000e+00
     127,    3.206040e+01,   -3.024451e+01,    0.000000e+00
     128,    4.635101e+00,   -2.604007e+01,    0.000000e+00
     129,    1.475531e+01,   -2.661506e+01,    0.000000e+00
     130,    2.822504e+01,   -2.686793e+01,    0.000000e+00
     131,    3.873513e+00,   -2.240977e+01,    0.000000e+00
     132,    1.215692e+01,   -2.284711e+01,    0.000000e+00
     133,    2.406973e+01,   -2.319465e+01,    0.000000e+00
     134,    2.972814e+00,   -1.892934e+01,    0.000000e+00
     135,    9.756105e+00,   -1.914861e+01,    0.000000e+00
     136,    1.956535e+01,   -1.936183e+01,    0.000000e+00
     137,    1.053933e+01,   -1.179320e+01,    0.000000e+00
     138,    5.721785e+00,   -8.060383e+00,    0.000000e+00
     139,   -1.172243e-01,   -4.201380e+00,    0.000000e+00
     140,    3.987815e+00,   -1.203035e+01,    0.000000e+00
     141,   -5.546733e-02,   -8.524862e+00,    0.000000e+00
     142,   -5.767763e+00,   -4.768547e+00,    0.000000e+00
     143,   -3.942584e-01,   -1.273105e+01,    0.000000e+00
     144,   -4.437260e+00,   -9.495434e+00,    0.000000e+00
     145,   -1.044099e+01,   -5.476685e+00,    0.000000e+00
     146,   -1.840151e+01,   -6.965523e+00,    0.000000e+00
     147,   -2.207786e+01,   -7.666521e+00,    0.000000e+00
     148,   -2.582424e+01,   -8.635572e+00,    0.000000e+00
     149,   -2.968477e+01,   -9.530421e+00,    0.000000e+00
     150,   -3.395110e+01,   -1.051301e+01,    0.000000e+00
     151,   -3.881916e+01,   -1.153664e+01,    0.000000e+00
     152,   -4.436158e+01,   -1.246900e+01,    0.000000e+00
     153,   -5.125878e+01,   -1.340996e+01,    0.000000e+00
     154,   -6.022165e+01,   -1.422235e+01,    0.000000e+00
     155,   -7.282161e+01,   -1.475728e+01,    0.000000e+00
     156,   -1.150953e+01,   -1.222022e+01,    0.000000e+00
     157,   -1.476564e+01,   -1.385308e+01,    0.000000e+00
     158,   -1.809552e+01,   -1.546859e+01,    0.000000e+00
     159,   -2.153283e+01,   -1.737952e+01,    0.000000e+00
     160,   -2.530132e+01,   -1.942714e+01,    0.000000e+00
     161,   -2.940606e+01,   -2.143680e+01,    0.000000e+00
     162,   -3.415494e+01,   -2.354388e+01,    0.000000e+00
     163,   -3.958503e+01,   -2.551686e+01,    0.000000e+00
     164,   -4.619742e+01,   -2.738533e+01,    0.000000e+00
     165,   -5.489142e+01,   -2.896676e+01,    0.000000e+00
     166,   -5.964385e+00,   -1.609110e+01,    0.000000e+00
     167,   -8.358001e+00,   -1.842648e+01,    0.000000e+00
     168,   -1.080483e+01,   -2.098915e+01,    0.000000e+00
     169,   -1.324925e+01,   -2.376055e+01,    0.000000e+00
     170,   -1.588804e+01,   -2.668474e+01,    0.000000e+00
     171,   -1.877413e+01,   -2.974952e+01,    0.000000e+00
     172,   -2.203261e+01,   -3.292562e+01,    0.000000e+00
     173,   -2.574304e+01,   -3.615695e+01,    0.000000e+00
     174,   -3.001977e+01,   -3.935200e+01,    0.000000e+00
     175,   -3.510171e+01,   -4.237493e+01,    0.000000e+00
**
********************************** E L E M E N T S ****************************
*ELEMENT, TYPE=S4R, ELSET=EB1
       1,      51,      58,     107,      97
       2,      58,      59,     108,     107
       3,      59,      60,     109,     108
       4,      60,      32,      34,     109
       5,      97,     107,     110,      98
       6,     107,     108,     111,     110
       7,     108,     109,     112,     111
       8,     109,      34,      35,     112
       9,      98,     110,     113,      99
      10,     110,     111,     114,     113
      11,     111,     112,     115,     114
      12,     112,      35,      36,     115
      13,      99,     113,     116,     100
      14,     113,     114,     117,     116
      15,     114,     115,     118,     117
      16,     115,      36,      37,     118
      17,     100,     116,     119,     101
      18,     116,     117,     120,     119
      19,     117,     118,     121,     120
      20,     118,      37,      38,     121
      21,     101,     119,     122,     102
      22,     119,     120,     123,     122
      23,     120,     121,     124,     123
      24,     121,      38,      39,     124
      25,     102,     122,     125,     103
      26,     122,     123,     126,     125
      27,     123,     124,     127,     126
      28,     124,      39,      40,     127
      29,     103,     125,     128,     104
      30,     125,     126,     129,     128
      31,     126,     127,     130,     129
      32,     127,      40,      41,     130
      33,     104,     128,     131,     105
      34,     128,     129,     132,     131
      35,     129,     130,     133,     132
      36,     130,      41,      42,     133
      37,     105,     131,     134,     106
      38,     131,     132,     135,     134
      39,     132,     133,     136,     135
      40,     133,      42,      33,     136
      41,     106,     134,      93,      90
      42,     134,     135,      92,      93
      43,     135,     136,      91,      92
      44,     136,      33,      46,      91
      45,      46,      45,     137,      91
      46,      45,      44,     138,     137
      47,      44,      43,     139,     138
      48,      43,       1,       3,     139
      49,      91,     137,     140,      92
      50,     137,     138,     141,     140
      51,     138,     139,     142,     141
      52,     139,       3,       4,     142
      53,      92,     140,     143,      93
      54,     140,     141,     144,     143
      55,     141,     142,     145,     144
      56,     142,       4,       5,     145
      57,      93,     143,      96,      90
      58,     143,     144,      95,      96
      59,     144,     145,      94,      95
      60,     145,       5,       6,      94
      61,       6,       7,     146,      94
      62,       7,       8,     147,     146
      63,       8,       9,     148,     147
      64,       9,      10,     149,     148
      65,      10,      11,     150,     149
      66,      11,      12,     151,     150
      67,      12,      13,     152,     151
      68,      13,      14,     153,     152
      69,      14,      15,     154,     153
      70,      15,      16,     155,     154
      71,      16,       2,      52,     155
      72,      94,     146,     156,      95
      73,     146,     147,     157,     156
      74,     147,     148,     158,     157
      75,     148,     149,     159,     158
      76,     149,     150,     160,     159
      77,     150,     151,     161,     160
      78,     151,     152,     162,     161
      79,     152,     153,     163,     162
      80,     153,     154,     164,     163
      81,     154,     155,     165,     164
      82,     155,      52,      53,     165
      83,      95,     156,     166,      96
      84,     156,     157,     167,     166
      85,     157,     158,     168,     167
      86,     158,     159,     169,     168
      87,     159,     160,     170,     169
      88,     160,     161,     171,     170
      89,     161,     162,     172,     171
      90,     162,     163,     173,     172
      91,     163,     164,     174,     173
      92,     164,     165,     175,     174
      93,     165,      53,      54,     175
      94,      96,     166,     106,      90
      95,     166,     167,     105,     106
      96,     167,     168,     104,     105
      97,     168,     169,     103,     104
      98,     169,     170,     102,     103
      99,     170,     171,     101,     102
     100,     171,     172,     100,     101
     101,     172,     173,      99,     100
     102,     173,     174,      98,      99
     103,     174,     175,      97,      98
     104,     175,      54,      51,      97
*ELEMENT, TYPE=S4R, ELSET=EB2
     105,      61,      57,      47,      48
     106,      62,      56,      57,      61
     107,      62,      61,      48,      49
     108,      63,      55,      56,      62
     109,      63,      62,      49,      50
     110,      64,      31,       1,      43
     111,      65,      30,      31,      64
     112,      65,      64,      43,      44
     113,      39,      38,      67,      66
     114,      38,      37,      68,      67
     115,      37,      36,      69,      68
     116,      36,      35,      70,      69
     117,      35,      34,      71,      70
     118,      34,      32,      72,      71
     119,      32,      55,      63,      72
     120,      39,      66,      73,      40
     121,      66,      75,      74,      73
     122,      66,      67,      68,      75
     123,      68,      69,      76,      75
     124,      69,      70,      19,      76
     125,      70,      71,      18,      19
     126,      71,      72,      17,      18
     127,      72,      63,      50,      17
     128,      19,      20,      77,      76
     129,      20,      21,      78,      77
     130,      21,      22,      79,      78
     131,      22,      23,      80,      79
     132,      23,      24,      81,      80
     133,      24,      25,      84,      81
     134,      29,      30,      65,      83
     135,      33,      42,      87,      84
     136,      76,      77,      74,      75
     137,      77,      78,      85,      74
     138,      78,      79,      86,      85
     139,      79,      80,      87,      86
     140,      80,      81,      84,      87
     141,      87,      42,      41,      86
     142,      40,      73,      86,      41
     143,      74,      85,      86,      73
     144,      82,      89,      26,      27
     145,      82,      27,      28,      88
     146,      28,      29,      83,      88
     147,      46,      33,      84,      89
     148,      84,      25,      26,      89
     149,      89,      82,      45,      46
     150,      82,      88,      44,      45
     151,      88,      83,      65,      44
**
********************************** S I D E S E T S **********************************
*ELSET, ELSET=SS1_E2
      71,      82,      93,     104
*ELSET, ELSET=SS1_E3
     105,     107,     109,     127
*SURFACE, NAME=SS1
SS1_E2, E2
SS1_E3, E3
*ELSET, ELSET=SS2_E1
       1,       2,       3,       4,      61,      62,      63,      64,      65,      66,
      67,      68,      69,      70,      71,     119,     128,     129,     130,     131,
     132,     133,     134,     146
*ELSET, ELSET=SS2_E2
      48,      52,      56,      60,     105,     106,     108,     110,     111,     145,
     148
*ELSET, ELSET=SS2_E3
     125,     126,     144
*SURFACE, NAME=SS2
SS2_E1, E1
SS2_E2, E2
SS2_E3, E3
*ELSET, ELSET=SS7_E1
      45,      46,      47,      48,     147
*ELSET, ELSET=SS7_E2
      44
*ELSET, ELSET=SS7_E3
     110,     112,     149,     150
*SURFACE, NAME=SS7
SS7_E1, E1
SS7_E2, E2
SS7_E3, E3
*ELSET, ELSET=SS8_E1
     113,     114,     115,     116,     117,     118,     135
*ELSET, ELSET=SS8_E2
       4,       8,      12,      16,      20,      24,      28,      32,      36,      40,
     141
*ELSET, ELSET=SS8_E4
     120,     142
*SURFACE, NAME=SS8
SS8_E1, E1
SS8_E2, E2
SS8_E4, E4
**
********************************** P R O P E R T I E S ************************
*SHELL SECTION, ELSET=EB1, SECTION INTEGRATION=SIMPSON, MATERIAL=Default-Steel
1.000000e+00
*SHELL SECTION, ELSET=EB2, SECTION INTEGRATION=SIMPSON, MATERIAL=Default-Steel
1.000000e+00
**
*END PART
**
**
**
********************************** E N D   P A R T S **********************************
**
**
********************************** A S S E M B L Y ************************************
**
*ASSEMBLY, NAME=ASSEMBLY1
**
*INSTANCE, NAME=Part-Default_1, PART=Part-Default
*END INSTANCE
**
*END ASSEMBLY
**
**
**
*MATERIAL, NAME = Default-Steel
*ELASTIC, TYPE=ISOTROPIC
2.068000e+05, 2.900000e-01
*DENSITY
7.000000e-06
*CONDUCTIVITY,TYPE=ISO
4.500000e-02
*SPECIFIC HEAT
5.000000e+02
**
**
************************************** H I S T O R Y *************************************
**
*PREPRINT
**
**************************************** S T E P 1 ***************************************
*STEP,INC=100,NAME=Default Set
**
*STATIC
1, 1, 1e-05, 1
**
**
**
**
*END STEP
